\* Source Pyomo model name=unknown *\

min 
x1:
+1 x2
+1 x3
+1 x4
+1 x5
+1 x6
+1 x7
+1 x8
+1 x9
+1 x10
+1 x11
+1 x12
+1 x13
+1 x14
+1 x15
+1 x16
+1 x17
+1 x18
+1 x19
+1 x20
+1 x21
+1 x22
+1 x23
+1 x24
+1 x25
+1 x26
+1 x27
+1 x28
+1 x29
+1 x30
+1 x31
+1 x32
+1 x33
+1 x34
+1 x35
+1 x36
+1 x37
+1 x38
+1 x39
+1 x40
+1 x41
+1 x42
+1 x43
+1 x44
+1 x45
+1 x46
+1 x47
+1 x48
+1 x49
+1 x50
+1 x51
+1 x52
+1 x53
+1 x54
+1 x55
+1 x56
+1 x57
+1 x58
+1 x59
+1 x60
+1 x61
+1 x62
+1 x63
+1 x64
+1 x65
+1 x66
+1 x67
+1 x68
+1 x69
+1 x70
+1 x71
+1 x72
+1 x73
+1 x74
+1 x75
+1 x76
+1 x77

s.t.

c_u_x78_:
+1 x79
+1 x80
+1 x81
+1 x82
+1 x83
+1 x84
+1 x85
+1 x86
+1 x87
+1 x88
+1 x89
+1 x90
<= 1

c_u_x91_:
+1 x92
+1 x93
+1 x94
+1 x95
+1 x96
+1 x97
+1 x98
+1 x99
+1 x100
+1 x101
+1 x102
+1 x103
<= 1

c_u_x104_:
+1 x105
+1 x106
+1 x107
+1 x108
+1 x109
+1 x110
+1 x111
+1 x112
+1 x113
+1 x114
+1 x115
+1 x116
<= 1

c_u_x117_:
+1 x118
+1 x119
+1 x120
+1 x121
+1 x122
+1 x123
+1 x124
+1 x125
+1 x126
+1 x127
+1 x128
+1 x129
<= 1

c_u_x130_:
+1 x131
+1 x132
+1 x133
+1 x134
+1 x135
+1 x136
+1 x137
+1 x138
+1 x139
+1 x140
+1 x141
+1 x142
<= 1

c_u_x143_:
+1 x144
+1 x145
+1 x146
+1 x147
+1 x148
+1 x149
+1 x150
+1 x151
+1 x152
+1 x153
+1 x154
+1 x155
<= 1

c_u_x156_:
+1 x157
+1 x158
+1 x159
+1 x160
+1 x161
+1 x162
+1 x163
+1 x164
+1 x165
+1 x166
+1 x167
+1 x168
<= 1

c_u_x169_:
+1 x170
+1 x171
+1 x172
+1 x173
+1 x174
+1 x175
+1 x176
+1 x177
+1 x178
+1 x179
+1 x180
+1 x181
<= 1

c_u_x182_:
+1 x183
+1 x184
+1 x185
+1 x186
+1 x187
+1 x188
+1 x189
+1 x190
+1 x191
+1 x192
+1 x193
+1 x194
<= 1

c_u_x195_:
+1 x196
+1 x197
+1 x198
+1 x199
+1 x200
+1 x201
+1 x202
+1 x203
+1 x204
+1 x205
+1 x206
+1 x207
<= 1

c_u_x208_:
+1 x209
+1 x210
+1 x211
+1 x212
+1 x213
+1 x214
+1 x215
+1 x216
+1 x217
+1 x218
+1 x219
+1 x220
<= 1

c_u_x221_:
+1 x222
+1 x223
+1 x224
+1 x225
+1 x226
+1 x227
+1 x228
+1 x229
+1 x230
+1 x231
+1 x232
+1 x233
<= 1

c_u_x234_:
+1 x235
+1 x236
+1 x237
+1 x238
+1 x239
+1 x240
+1 x241
+1 x242
+1 x243
+1 x244
+1 x245
+1 x246
<= 1

c_u_x247_:
+1 x248
+1 x249
+1 x250
+1 x251
+1 x252
+1 x253
+1 x254
+1 x255
+1 x256
+1 x257
+1 x258
+1 x259
<= 1

c_u_x260_:
+1 x261
+1 x262
+1 x263
+1 x264
+1 x265
+1 x266
+1 x267
+1 x268
+1 x269
+1 x270
+1 x271
+1 x272
<= 1

c_u_x273_:
+1 x274
+1 x275
+1 x276
+1 x277
+1 x278
+1 x279
+1 x280
+1 x281
+1 x282
+1 x283
+1 x284
+1 x285
<= 1

c_u_x286_:
+1 x287
+1 x288
+1 x289
+1 x290
+1 x291
+1 x292
+1 x293
+1 x294
+1 x295
+1 x296
+1 x297
+1 x298
<= 1

c_u_x299_:
+1 x300
+1 x301
+1 x302
+1 x303
+1 x304
+1 x305
+1 x306
+1 x307
+1 x308
+1 x309
+1 x310
+1 x311
<= 1

c_u_x312_:
+1 x313
+1 x314
+1 x315
+1 x316
+1 x317
+1 x318
+1 x319
+1 x320
+1 x321
+1 x322
+1 x323
+1 x324
<= 1

c_u_x325_:
+1 x326
+1 x327
+1 x328
+1 x329
+1 x330
+1 x331
+1 x332
+1 x333
+1 x334
+1 x335
+1 x336
+1 x337
<= 1

c_e_x338_:
+1 x339
-1 x340
+1 x341
= 0

c_e_x342_:
+1 x343
-1 x344
+1 x345
= 0

c_e_x346_:
+1 x347
-1 x348
+1 x349
= 0

c_e_x350_:
+1 x351
-1 x352
+1 x353
= 0

c_e_x354_:
+1 x355
-1 x356
+1 x357
= 0

c_e_x358_:
+1 x359
-1 x360
+1 x361
= 0

c_e_x362_:
+1 x363
-1 x364
+1 x365
= 0

c_e_x366_:
+1 x367
-1 x368
+1 x369
= 0

c_e_x370_:
+1 x371
-1 x372
+1 x373
= 0

c_e_x374_:
+1 x375
-1 x376
+1 x377
= 0

c_e_x378_:
+1 x379
-1 x380
+1 x381
= 0

c_e_x382_:
+1 x383
-1 x384
+1 x385
= 0

c_e_x386_:
+1 x387
-1 x388
+1 x389
= 0

c_e_x390_:
+1 x391
-1 x392
+1 x393
= 0

c_e_x394_:
+1 x395
-1 x396
+1 x397
= 0

c_e_x398_:
+1 x399
-1 x400
+1 x401
= 0

c_e_x402_:
+1 x403
-1 x404
+1 x405
= 0

c_e_x406_:
+1 x407
-1 x408
+1 x409
= 0

c_e_x410_:
+1 x411
-1 x412
+1 x413
= 0

c_e_x414_:
+1 x415
-1 x416
+1 x417
= 0

c_e_x418_:
+1 x419
-1 x420
+1 x421
= 0

c_e_x422_:
+1 x423
-1 x424
+1 x425
= 0

c_e_x426_:
+1 x427
-1 x428
+1 x429
= 0

c_e_x430_:
+1 x431
-1 x432
+1 x433
= 0

c_e_x434_:
+1 x435
-1 x436
+1 x437
= 0

c_e_x438_:
+1 x439
-1 x440
+1 x441
= 0

c_e_x442_:
+1 x443
-1 x444
+1 x445
= 0

c_e_x446_:
+1 x447
-1 x448
+1 x449
= 0

c_e_x450_:
+1 x451
-1 x452
+1 x453
= 0

c_e_x454_:
+1 x455
-1 x456
+1 x457
= 0

c_e_x458_:
+1 x459
-1 x460
+1 x461
= 0

c_e_x462_:
+1 x463
-1 x464
+1 x465
= 0

c_e_x466_:
+1 x467
-1 x468
+1 x469
= 0

c_e_x470_:
+1 x471
-1 x472
+1 x473
= 0

c_e_x474_:
+1 x475
-1 x476
+1 x477
= 0

c_e_x478_:
+1 x479
-1 x480
+1 x481
= 0

c_e_x482_:
+1 x483
-1 x484
+1 x485
= 0

c_e_x486_:
+1 x487
-1 x488
+1 x489
= 0

c_e_x490_:
+1 x491
-1 x492
+1 x493
= 0

c_e_x494_:
+1 x495
-1 x496
+1 x497
= 0

c_e_x498_:
+1 x499
-1 x500
+1 x501
= 0

c_e_x502_:
+1 x503
-1 x504
+1 x505
= 0

c_e_x506_:
+1 x507
-1 x508
+1 x509
= 0

c_e_x510_:
+1 x511
-1 x512
+1 x513
= 0

c_e_x514_:
+1 x515
-1 x516
+1 x517
= 0

c_e_x518_:
+1 x519
-1 x520
+1 x521
= 0

c_e_x522_:
+1 x523
-1 x524
+1 x525
= 0

c_e_x526_:
+1 x527
-1 x528
+1 x529
= 0

c_e_x530_:
+1 x531
-1 x532
+1 x533
= 0

c_e_x534_:
+1 x535
-1 x536
+1 x537
= 0

c_e_x538_:
+1 x539
-1 x540
+1 x541
= 0

c_e_x542_:
+1 x543
-1 x544
+1 x545
= 0

c_e_x546_:
+1 x547
-1 x548
+1 x549
= 0

c_e_x550_:
+1 x551
-1 x552
+1 x553
= 0

c_e_x554_:
+1 x555
-1 x556
+1 x557
= 0

c_e_x558_:
+1 x559
-1 x560
+1 x561
= 0

c_e_x562_:
+1 x563
-1 x564
+1 x565
= 0

c_e_x566_:
+1 x567
-1 x568
+1 x569
= 0

c_e_x570_:
+1 x571
-1 x572
+1 x573
= 0

c_e_x574_:
+1 x575
-1 x576
+1 x577
= 0

c_e_x578_:
+1 x579
-1 x580
+1 x581
= 0

c_e_x582_:
+1 x583
-1 x584
+1 x585
= 0

c_e_x586_:
+1 x587
-1 x588
+1 x589
= 0

c_e_x590_:
+1 x591
-1 x592
+1 x593
= 0

c_e_x594_:
+1 x595
-1 x596
+1 x597
= 0

c_e_x598_:
+1 x599
-1 x600
+1 x601
= 0

c_e_x602_:
+1 x603
-1 x604
+1 x605
= 0

c_e_x606_:
+1 x607
-1 x608
+1 x609
= 0

c_e_x610_:
+1 x611
-1 x612
+1 x613
= 0

c_e_x614_:
+1 x615
-1 x616
+1 x617
= 0

c_e_x618_:
+1 x619
-1 x620
+1 x621
= 0

c_e_x622_:
+1 x623
-1 x624
+1 x625
= 0

c_e_x626_:
+1 x627
-1 x628
+1 x629
= 0

c_e_x630_:
+1 x631
-1 x632
+1 x633
= 0

c_e_x634_:
+1 x635
-1 x636
+1 x637
= 0

c_e_x638_:
+1 x639
-1 x640
+1 x641
= 0

c_e_x642_:
+1 x643
-1 x644
+1 x645
= 0

c_e_x646_:
+1 x647
-1 x648
+1 x649
= 0

c_e_x650_:
+1 x651
-1 x652
+1 x653
= 0

c_e_x654_:
+1 x655
-1 x656
+1 x657
= 0

c_e_x658_:
+1 x659
-1 x660
+1 x661
= 0

c_e_x662_:
+1 x663
-1 x664
+1 x665
= 0

c_e_x666_:
+1 x667
-1 x668
+1 x669
= 0

c_e_x670_:
+1 x671
-1 x672
+1 x673
= 0

c_e_x674_:
+1 x675
-1 x676
+1 x677
= 0

c_e_x678_:
+1 x679
-1 x680
+1 x681
= 0

c_e_x682_:
+1 x683
-1 x684
+1 x685
= 0

c_e_x686_:
+1 x687
-1 x688
+1 x689
= 0

c_e_x690_:
+1 x691
-1 x692
+1 x693
= 0

c_e_x694_:
+1 x695
-1 x696
+1 x697
= 0

c_e_x698_:
+1 x699
-1 x700
+1 x701
= 0

c_e_x702_:
+1 x703
-1 x704
+1 x705
= 0

c_e_x706_:
+1 x707
-1 x708
+1 x709
= 0

c_e_x710_:
+1 x711
-1 x712
+1 x713
= 0

c_e_x714_:
+1 x715
-1 x716
+1 x717
= 0

c_e_x718_:
+1 x719
-1 x720
+1 x721
= 0

c_e_x722_:
+1 x723
-1 x724
+1 x725
= 0

c_e_x726_:
+1 x727
-1 x728
+1 x729
= 0

c_e_x730_:
+1 x731
-1 x732
+1 x733
= 0

c_e_x734_:
+1 x735
-1 x736
+1 x737
= 0

c_e_x738_:
+1 x739
-1 x740
+1 x741
= 0

c_e_x742_:
+1 x743
-1 x744
+1 x745
= 0

c_e_x746_:
+1 x747
-1 x748
+1 x749
= 0

c_e_x750_:
+1 x751
-1 x752
+1 x753
= 0

c_e_x754_:
+1 x755
-1 x756
+1 x757
= 0

c_e_x758_:
+1 x759
-1 x760
+1 x761
= 0

c_e_x762_:
+1 x763
-1 x764
+1 x765
= 0

c_e_x766_:
+1 x767
-1 x768
+1 x769
= 0

c_e_x770_:
+1 x771
-1 x772
+1 x773
= 0

c_e_x774_:
+1 x775
-1 x776
+1 x777
= 0

c_e_x778_:
+1 x779
-1 x780
+1 x781
= 0

c_e_x782_:
+1 x783
-1 x784
+1 x785
= 0

c_e_x786_:
+1 x787
-1 x788
+1 x789
= 0

c_e_x790_:
+1 x791
-1 x792
+1 x793
= 0

c_e_x794_:
+1 x795
-1 x796
+1 x797
= 0

c_e_x798_:
+1 x799
-1 x800
+1 x801
= 0

c_e_x802_:
+1 x803
-1 x804
+1 x805
= 0

c_e_x806_:
+1 x807
-1 x808
+1 x809
= 0

c_e_x810_:
+1 x811
-1 x812
+1 x813
= 0

c_e_x814_:
+1 x815
-1 x816
+1 x817
= 0

c_e_x818_:
+1 x819
-1 x820
+1 x821
= 0

c_e_x822_:
+1 x823
-1 x824
+1 x825
= 0

c_e_x826_:
+1 x827
-1 x828
+1 x829
= 0

c_e_x830_:
+1 x831
-1 x832
+1 x833
= 0

c_e_x834_:
+1 x835
-1 x836
+1 x837
= 0

c_e_x838_:
+1 x839
-1 x840
+1 x841
= 0

c_e_x842_:
+1 x843
-1 x844
+1 x845
= 0

c_e_x846_:
+1 x847
-1 x848
+1 x849
= 0

c_e_x850_:
+1 x851
-1 x852
+1 x853
= 0

c_e_x854_:
+1 x855
-1 x856
+1 x857
= 0

c_e_x858_:
+1 x859
-1 x860
+1 x861
= 0

c_e_x862_:
+1 x863
-1 x864
+1 x865
= 0

c_e_x866_:
+1 x867
-1 x868
+1 x869
= 0

c_e_x870_:
+1 x871
-1 x872
+1 x873
= 0

c_e_x874_:
+1 x875
-1 x876
+1 x877
= 0

c_e_x878_:
+1 x879
-1 x880
+1 x881
= 0

c_e_x882_:
+1 x883
-1 x884
+1 x885
= 0

c_e_x886_:
+1 x887
-1 x888
+1 x889
= 0

c_e_x890_:
+1 x891
-1 x892
+1 x893
= 0

c_e_x894_:
+1 x895
-1 x896
+1 x897
= 0

c_e_x898_:
+1 x899
-1 x900
+1 x901
= 0

c_e_x902_:
+1 x903
-1 x904
+1 x905
= 0

c_e_x906_:
+1 x907
-1 x908
+1 x909
= 0

c_e_x910_:
+1 x911
-1 x912
+1 x913
= 0

c_e_x914_:
+1 x915
-1 x916
+1 x917
= 0

c_e_x918_:
+1 x919
-1 x920
+1 x921
= 0

c_e_x922_:
+1 x923
-1 x924
+1 x925
= 0

c_e_x926_:
+1 x927
-1 x928
+1 x929
= 0

c_e_x930_:
+1 x931
-1 x932
+1 x933
= 0

c_e_x934_:
+1 x935
-1 x936
+1 x937
= 0

c_e_x938_:
+1 x939
-1 x940
+1 x941
= 0

c_e_x942_:
+1 x943
-1 x944
+1 x945
= 0

c_e_x946_:
+1 x947
-1 x948
+1 x949
= 0

c_e_x950_:
+1 x951
-1 x952
+1 x953
= 0

c_e_x954_:
+1 x955
-1 x956
+1 x957
= 0

c_e_x958_:
+1 x959
-1 x960
+1 x961
= 0

c_e_x962_:
+1 x963
-1 x964
+1 x965
= 0

c_e_x966_:
+1 x967
-1 x968
+1 x969
= 0

c_e_x970_:
+1 x971
-1 x972
+1 x973
= 0

c_e_x974_:
+1 x975
-1 x976
+1 x977
= 0

c_e_x978_:
+1 x979
-1 x980
+1 x981
= 0

c_e_x982_:
+1 x983
-1 x984
+1 x985
= 0

c_e_x986_:
+1 x987
-1 x988
+1 x989
= 0

c_e_x990_:
+1 x991
-1 x992
+1 x993
= 0

c_e_x994_:
+1 x995
-1 x996
+1 x997
= 0

c_e_x998_:
+1 x999
-1 x1000
+1 x1001
= 0

c_e_x1002_:
+1 x1003
-1 x1004
+1 x1005
= 0

c_e_x1006_:
+1 x1007
-1 x1008
+1 x1009
= 0

c_e_x1010_:
+1 x1011
-1 x1012
+1 x1013
= 0

c_e_x1014_:
+1 x1015
-1 x1016
+1 x1017
= 0

c_e_x1018_:
+1 x1019
-1 x1020
+1 x1021
= 0

c_e_x1022_:
+1 x1023
-1 x1024
+1 x1025
= 0

c_e_x1026_:
+1 x1027
-1 x1028
+1 x1029
= 0

c_e_x1030_:
+1 x1031
-1 x1032
+1 x1033
= 0

c_e_x1034_:
+1 x1035
-1 x1036
+1 x1037
= 0

c_e_x1038_:
+1 x1039
-1 x1040
+1 x1041
= 0

c_e_x1042_:
+1 x1043
-1 x1044
+1 x1045
= 0

c_e_x1046_:
+1 x1047
-1 x1048
+1 x1049
= 0

c_e_x1050_:
+1 x1051
-1 x1052
+1 x1053
= 0

c_e_x1054_:
+1 x1055
-1 x1056
+1 x1057
= 0

c_e_x1058_:
+1 x1059
-1 x1060
+1 x1061
= 0

c_e_x1062_:
+1 x1063
-1 x1064
+1 x1065
= 0

c_e_x1066_:
+1 x1067
-1 x1068
+1 x1069
= 0

c_e_x1070_:
+1 x1071
-1 x1072
+1 x1073
= 0

c_e_x1074_:
+1 x1075
-1 x1076
+1 x1077
= 0

c_e_x1078_:
+1 x1079
-1 x1080
+1 x1081
= 0

c_e_x1082_:
+1 x1083
-1 x1084
+1 x1085
= 0

c_e_x1086_:
+1 x1087
-1 x1088
+1 x1089
= 0

c_e_x1090_:
+1 x1091
-1 x1092
+1 x1093
= 0

c_e_x1094_:
+1 x1095
-1 x1096
+1 x1097
= 0

c_e_x1098_:
+1 x1099
-1 x1100
+1 x1101
= 0

c_e_x1102_:
+1 x1103
-1 x1104
+1 x1105
= 0

c_e_x1106_:
+1 x1107
-1 x1108
+1 x1109
= 0

c_e_x1110_:
+1 x1111
-1 x1112
+1 x1113
= 0

c_e_x1114_:
+1 x1115
-1 x1116
+1 x1117
= 0

c_e_x1118_:
+1 x1119
-1 x1120
+1 x1121
= 0

c_e_x1122_:
+1 x1123
-1 x1124
+1 x1125
= 0

c_e_x1126_:
+1 x1127
-1 x1128
+1 x1129
= 0

c_e_x1130_:
+1 x1131
-1 x1132
+1 x1133
= 0

c_e_x1134_:
+1 x1135
-1 x1136
+1 x1137
= 0

c_e_x1138_:
+1 x1139
-1 x1140
+1 x1141
= 0

c_e_x1142_:
+1 x1143
-1 x1144
+1 x1145
= 0

c_e_x1146_:
+1 x1147
-1 x1148
+1 x1149
= 0

c_e_x1150_:
+1 x1151
-1 x1152
+1 x1153
= 0

c_e_x1154_:
+1 x1155
-1 x1156
+1 x1157
= 0

c_e_x1158_:
+1 x1159
-1 x1160
+1 x1161
= 0

c_e_x1162_:
+1 x1163
-1 x1164
+1 x1165
= 0

c_e_x1166_:
+1 x1167
-1 x1168
+1 x1169
= 0

c_e_x1170_:
+1 x1171
-1 x1172
+1 x1173
= 0

c_e_x1174_:
+1 x1175
-1 x1176
+1 x1177
= 0

c_e_x1178_:
+1 x1179
-1 x1180
+1 x1181
= 0

c_e_x1182_:
+1 x1183
-1 x1184
+1 x1185
= 0

c_e_x1186_:
+1 x1187
-1 x1188
+1 x1189
= 0

c_e_x1190_:
+1 x1191
-1 x1192
+1 x1193
= 0

c_e_x1194_:
+1 x1195
-1 x1196
+1 x1197
= 0

c_e_x1198_:
+1 x1199
-1 x1200
+1 x1201
= 0

c_e_x1202_:
+1 x1203
-1 x1204
+1 x1205
= 0

c_e_x1206_:
+1 x1207
-1 x1208
+1 x1209
= 0

c_e_x1210_:
+1 x1211
-1 x1212
+1 x1213
= 0

c_e_x1214_:
+1 x1215
-1 x1216
+1 x1217
= 0

c_e_x1218_:
+1 x1219
-1 x1220
+1 x1221
= 0

c_e_x1222_:
+1 x1223
-1 x1224
+1 x1225
= 0

c_e_x1226_:
+1 x1227
-1 x1228
+1 x1229
= 0

c_e_x1230_:
+1 x1231
-1 x1232
+1 x1233
= 0

c_e_x1234_:
+1 x1235
-1 x1236
+1 x1237
= 0

c_e_x1238_:
+1 x1239
-1 x1240
+1 x1241
= 0

c_e_x1242_:
+1 x1243
-1 x1244
+1 x1245
= 0

c_e_x1246_:
+1 x1247
-1 x1248
+1 x1249
= 0

c_e_x1250_:
+1 x1251
-1 x1252
+1 x1253
= 0

c_e_x1254_:
+1 x1255
-1 x1256
+1 x1257
= 0

c_e_x1258_:
+1 x1259
-1 x1260
+1 x1261
= 0

c_e_x1262_:
+1 x1263
-1 x1264
+1 x1265
= 0

c_e_x1266_:
+1 x1267
-1 x1268
+1 x1269
= 0

c_e_x1270_:
+1 x1271
-1 x1272
+1 x1273
= 0

c_e_x1274_:
+1 x1275
-1 x1276
+1 x1277
= 0

c_e_x1278_:
+1 x1279
-1 x1280
+1 x1281
= 0

c_e_x1282_:
+1 x1283
-1 x1284
+1 x1285
= 0

c_e_x1286_:
+1 x1287
-1 x1288
+1 x1289
= 0

c_e_x1290_:
+1 x1291
-1 x1292
+1 x1293
= 0

c_e_x1294_:
+1 x1295
-1 x1296
+1 x1297
= 0

c_u_x1298_:
-52.0 x79
+1 x341
<= 0

c_u_x1299_:
-52.0 x80
+1 x345
<= 0

c_u_x1300_:
-52.0 x81
+1 x349
<= 0

c_u_x1301_:
-52.0 x82
+1 x353
<= 0

c_u_x1302_:
-52.0 x83
+1 x357
<= 0

c_u_x1303_:
-52.0 x84
+1 x361
<= 0

c_u_x1304_:
-52.0 x85
+1 x365
<= 0

c_u_x1305_:
-52.0 x86
+1 x369
<= 0

c_u_x1306_:
-52.0 x87
+1 x373
<= 0

c_u_x1307_:
-52.0 x88
+1 x377
<= 0

c_u_x1308_:
-52.0 x89
+1 x381
<= 0

c_u_x1309_:
-52.0 x90
+1 x385
<= 0

c_u_x1310_:
-52.0 x92
+1 x389
<= 0

c_u_x1311_:
-52.0 x93
+1 x393
<= 0

c_u_x1312_:
-52.0 x94
+1 x397
<= 0

c_u_x1313_:
-52.0 x95
+1 x401
<= 0

c_u_x1314_:
-52.0 x96
+1 x405
<= 0

c_u_x1315_:
-52.0 x97
+1 x409
<= 0

c_u_x1316_:
-52.0 x98
+1 x413
<= 0

c_u_x1317_:
-52.0 x99
+1 x417
<= 0

c_u_x1318_:
-52.0 x100
+1 x421
<= 0

c_u_x1319_:
-52.0 x101
+1 x425
<= 0

c_u_x1320_:
-52.0 x102
+1 x429
<= 0

c_u_x1321_:
-52.0 x103
+1 x433
<= 0

c_u_x1322_:
-52.0 x105
+1 x437
<= 0

c_u_x1323_:
-52.0 x106
+1 x441
<= 0

c_u_x1324_:
-52.0 x107
+1 x445
<= 0

c_u_x1325_:
-52.0 x108
+1 x449
<= 0

c_u_x1326_:
-52.0 x109
+1 x453
<= 0

c_u_x1327_:
-52.0 x110
+1 x457
<= 0

c_u_x1328_:
-52.0 x111
+1 x461
<= 0

c_u_x1329_:
-52.0 x112
+1 x465
<= 0

c_u_x1330_:
-52.0 x113
+1 x469
<= 0

c_u_x1331_:
-52.0 x114
+1 x473
<= 0

c_u_x1332_:
-52.0 x115
+1 x477
<= 0

c_u_x1333_:
-52.0 x116
+1 x481
<= 0

c_u_x1334_:
-52.0 x118
+1 x485
<= 0

c_u_x1335_:
-52.0 x119
+1 x489
<= 0

c_u_x1336_:
-52.0 x120
+1 x493
<= 0

c_u_x1337_:
-52.0 x121
+1 x497
<= 0

c_u_x1338_:
-52.0 x122
+1 x501
<= 0

c_u_x1339_:
-52.0 x123
+1 x505
<= 0

c_u_x1340_:
-52.0 x124
+1 x509
<= 0

c_u_x1341_:
-52.0 x125
+1 x513
<= 0

c_u_x1342_:
-52.0 x126
+1 x517
<= 0

c_u_x1343_:
-52.0 x127
+1 x521
<= 0

c_u_x1344_:
-52.0 x128
+1 x525
<= 0

c_u_x1345_:
-52.0 x129
+1 x529
<= 0

c_u_x1346_:
-52.0 x131
+1 x533
<= 0

c_u_x1347_:
-52.0 x132
+1 x537
<= 0

c_u_x1348_:
-52.0 x133
+1 x541
<= 0

c_u_x1349_:
-52.0 x134
+1 x545
<= 0

c_u_x1350_:
-52.0 x135
+1 x549
<= 0

c_u_x1351_:
-52.0 x136
+1 x553
<= 0

c_u_x1352_:
-52.0 x137
+1 x557
<= 0

c_u_x1353_:
-52.0 x138
+1 x561
<= 0

c_u_x1354_:
-52.0 x139
+1 x565
<= 0

c_u_x1355_:
-52.0 x140
+1 x569
<= 0

c_u_x1356_:
-52.0 x141
+1 x573
<= 0

c_u_x1357_:
-52.0 x142
+1 x577
<= 0

c_u_x1358_:
-52.0 x144
+1 x581
<= 0

c_u_x1359_:
-52.0 x145
+1 x585
<= 0

c_u_x1360_:
-52.0 x146
+1 x589
<= 0

c_u_x1361_:
-52.0 x147
+1 x593
<= 0

c_u_x1362_:
-52.0 x148
+1 x597
<= 0

c_u_x1363_:
-52.0 x149
+1 x601
<= 0

c_u_x1364_:
-52.0 x150
+1 x605
<= 0

c_u_x1365_:
-52.0 x151
+1 x609
<= 0

c_u_x1366_:
-52.0 x152
+1 x613
<= 0

c_u_x1367_:
-52.0 x153
+1 x617
<= 0

c_u_x1368_:
-52.0 x154
+1 x621
<= 0

c_u_x1369_:
-52.0 x155
+1 x625
<= 0

c_u_x1370_:
-52.0 x157
+1 x629
<= 0

c_u_x1371_:
-52.0 x158
+1 x633
<= 0

c_u_x1372_:
-52.0 x159
+1 x637
<= 0

c_u_x1373_:
-52.0 x160
+1 x641
<= 0

c_u_x1374_:
-52.0 x161
+1 x645
<= 0

c_u_x1375_:
-52.0 x162
+1 x649
<= 0

c_u_x1376_:
-52.0 x163
+1 x653
<= 0

c_u_x1377_:
-52.0 x164
+1 x657
<= 0

c_u_x1378_:
-52.0 x165
+1 x661
<= 0

c_u_x1379_:
-52.0 x166
+1 x665
<= 0

c_u_x1380_:
-52.0 x167
+1 x669
<= 0

c_u_x1381_:
-52.0 x168
+1 x673
<= 0

c_u_x1382_:
-52.0 x170
+1 x677
<= 0

c_u_x1383_:
-52.0 x171
+1 x681
<= 0

c_u_x1384_:
-52.0 x172
+1 x685
<= 0

c_u_x1385_:
-52.0 x173
+1 x689
<= 0

c_u_x1386_:
-52.0 x174
+1 x693
<= 0

c_u_x1387_:
-52.0 x175
+1 x697
<= 0

c_u_x1388_:
-52.0 x176
+1 x701
<= 0

c_u_x1389_:
-52.0 x177
+1 x705
<= 0

c_u_x1390_:
-52.0 x178
+1 x709
<= 0

c_u_x1391_:
-52.0 x179
+1 x713
<= 0

c_u_x1392_:
-52.0 x180
+1 x717
<= 0

c_u_x1393_:
-52.0 x181
+1 x721
<= 0

c_u_x1394_:
-52.0 x183
+1 x725
<= 0

c_u_x1395_:
-52.0 x184
+1 x729
<= 0

c_u_x1396_:
-52.0 x185
+1 x733
<= 0

c_u_x1397_:
-52.0 x186
+1 x737
<= 0

c_u_x1398_:
-52.0 x187
+1 x741
<= 0

c_u_x1399_:
-52.0 x188
+1 x745
<= 0

c_u_x1400_:
-52.0 x189
+1 x749
<= 0

c_u_x1401_:
-52.0 x190
+1 x753
<= 0

c_u_x1402_:
-52.0 x191
+1 x757
<= 0

c_u_x1403_:
-52.0 x192
+1 x761
<= 0

c_u_x1404_:
-52.0 x193
+1 x765
<= 0

c_u_x1405_:
-52.0 x194
+1 x769
<= 0

c_u_x1406_:
-52.0 x196
+1 x773
<= 0

c_u_x1407_:
-52.0 x197
+1 x777
<= 0

c_u_x1408_:
-52.0 x198
+1 x781
<= 0

c_u_x1409_:
-52.0 x199
+1 x785
<= 0

c_u_x1410_:
-52.0 x200
+1 x789
<= 0

c_u_x1411_:
-52.0 x201
+1 x793
<= 0

c_u_x1412_:
-52.0 x202
+1 x797
<= 0

c_u_x1413_:
-52.0 x203
+1 x801
<= 0

c_u_x1414_:
-52.0 x204
+1 x805
<= 0

c_u_x1415_:
-52.0 x205
+1 x809
<= 0

c_u_x1416_:
-52.0 x206
+1 x813
<= 0

c_u_x1417_:
-52.0 x207
+1 x817
<= 0

c_u_x1418_:
-52.0 x209
+1 x821
<= 0

c_u_x1419_:
-52.0 x210
+1 x825
<= 0

c_u_x1420_:
-52.0 x211
+1 x829
<= 0

c_u_x1421_:
-52.0 x212
+1 x833
<= 0

c_u_x1422_:
-52.0 x213
+1 x837
<= 0

c_u_x1423_:
-52.0 x214
+1 x841
<= 0

c_u_x1424_:
-52.0 x215
+1 x845
<= 0

c_u_x1425_:
-52.0 x216
+1 x849
<= 0

c_u_x1426_:
-52.0 x217
+1 x853
<= 0

c_u_x1427_:
-52.0 x218
+1 x857
<= 0

c_u_x1428_:
-52.0 x219
+1 x861
<= 0

c_u_x1429_:
-52.0 x220
+1 x865
<= 0

c_u_x1430_:
-52.0 x222
+1 x869
<= 0

c_u_x1431_:
-52.0 x223
+1 x873
<= 0

c_u_x1432_:
-52.0 x224
+1 x877
<= 0

c_u_x1433_:
-52.0 x225
+1 x881
<= 0

c_u_x1434_:
-52.0 x226
+1 x885
<= 0

c_u_x1435_:
-52.0 x227
+1 x889
<= 0

c_u_x1436_:
-52.0 x228
+1 x893
<= 0

c_u_x1437_:
-52.0 x229
+1 x897
<= 0

c_u_x1438_:
-52.0 x230
+1 x901
<= 0

c_u_x1439_:
-52.0 x231
+1 x905
<= 0

c_u_x1440_:
-52.0 x232
+1 x909
<= 0

c_u_x1441_:
-52.0 x233
+1 x913
<= 0

c_u_x1442_:
-52.0 x235
+1 x917
<= 0

c_u_x1443_:
-52.0 x236
+1 x921
<= 0

c_u_x1444_:
-52.0 x237
+1 x925
<= 0

c_u_x1445_:
-52.0 x238
+1 x929
<= 0

c_u_x1446_:
-52.0 x239
+1 x933
<= 0

c_u_x1447_:
-52.0 x240
+1 x937
<= 0

c_u_x1448_:
-52.0 x241
+1 x941
<= 0

c_u_x1449_:
-52.0 x242
+1 x945
<= 0

c_u_x1450_:
-52.0 x243
+1 x949
<= 0

c_u_x1451_:
-52.0 x244
+1 x953
<= 0

c_u_x1452_:
-52.0 x245
+1 x957
<= 0

c_u_x1453_:
-52.0 x246
+1 x961
<= 0

c_u_x1454_:
-52.0 x248
+1 x965
<= 0

c_u_x1455_:
-52.0 x249
+1 x969
<= 0

c_u_x1456_:
-52.0 x250
+1 x973
<= 0

c_u_x1457_:
-52.0 x251
+1 x977
<= 0

c_u_x1458_:
-52.0 x252
+1 x981
<= 0

c_u_x1459_:
-52.0 x253
+1 x985
<= 0

c_u_x1460_:
-52.0 x254
+1 x989
<= 0

c_u_x1461_:
-52.0 x255
+1 x993
<= 0

c_u_x1462_:
-52.0 x256
+1 x997
<= 0

c_u_x1463_:
-52.0 x257
+1 x1001
<= 0

c_u_x1464_:
-52.0 x258
+1 x1005
<= 0

c_u_x1465_:
-52.0 x259
+1 x1009
<= 0

c_u_x1466_:
-52.0 x261
+1 x1013
<= 0

c_u_x1467_:
-52.0 x262
+1 x1017
<= 0

c_u_x1468_:
-52.0 x263
+1 x1021
<= 0

c_u_x1469_:
-52.0 x264
+1 x1025
<= 0

c_u_x1470_:
-52.0 x265
+1 x1029
<= 0

c_u_x1471_:
-52.0 x266
+1 x1033
<= 0

c_u_x1472_:
-52.0 x267
+1 x1037
<= 0

c_u_x1473_:
-52.0 x268
+1 x1041
<= 0

c_u_x1474_:
-52.0 x269
+1 x1045
<= 0

c_u_x1475_:
-52.0 x270
+1 x1049
<= 0

c_u_x1476_:
-52.0 x271
+1 x1053
<= 0

c_u_x1477_:
-52.0 x272
+1 x1057
<= 0

c_u_x1478_:
-52.0 x274
+1 x1061
<= 0

c_u_x1479_:
-52.0 x275
+1 x1065
<= 0

c_u_x1480_:
-52.0 x276
+1 x1069
<= 0

c_u_x1481_:
-52.0 x277
+1 x1073
<= 0

c_u_x1482_:
-52.0 x278
+1 x1077
<= 0

c_u_x1483_:
-52.0 x279
+1 x1081
<= 0

c_u_x1484_:
-52.0 x280
+1 x1085
<= 0

c_u_x1485_:
-52.0 x281
+1 x1089
<= 0

c_u_x1486_:
-52.0 x282
+1 x1093
<= 0

c_u_x1487_:
-52.0 x283
+1 x1097
<= 0

c_u_x1488_:
-52.0 x284
+1 x1101
<= 0

c_u_x1489_:
-52.0 x285
+1 x1105
<= 0

c_u_x1490_:
-52.0 x287
+1 x1109
<= 0

c_u_x1491_:
-52.0 x288
+1 x1113
<= 0

c_u_x1492_:
-52.0 x289
+1 x1117
<= 0

c_u_x1493_:
-52.0 x290
+1 x1121
<= 0

c_u_x1494_:
-52.0 x291
+1 x1125
<= 0

c_u_x1495_:
-52.0 x292
+1 x1129
<= 0

c_u_x1496_:
-52.0 x293
+1 x1133
<= 0

c_u_x1497_:
-52.0 x294
+1 x1137
<= 0

c_u_x1498_:
-52.0 x295
+1 x1141
<= 0

c_u_x1499_:
-52.0 x296
+1 x1145
<= 0

c_u_x1500_:
-52.0 x297
+1 x1149
<= 0

c_u_x1501_:
-52.0 x298
+1 x1153
<= 0

c_u_x1502_:
-52.0 x300
+1 x1157
<= 0

c_u_x1503_:
-52.0 x301
+1 x1161
<= 0

c_u_x1504_:
-52.0 x302
+1 x1165
<= 0

c_u_x1505_:
-52.0 x303
+1 x1169
<= 0

c_u_x1506_:
-52.0 x304
+1 x1173
<= 0

c_u_x1507_:
-52.0 x305
+1 x1177
<= 0

c_u_x1508_:
-52.0 x306
+1 x1181
<= 0

c_u_x1509_:
-52.0 x307
+1 x1185
<= 0

c_u_x1510_:
-52.0 x308
+1 x1189
<= 0

c_u_x1511_:
-52.0 x309
+1 x1193
<= 0

c_u_x1512_:
-52.0 x310
+1 x1197
<= 0

c_u_x1513_:
-52.0 x311
+1 x1201
<= 0

c_u_x1514_:
-52.0 x313
+1 x1205
<= 0

c_u_x1515_:
-52.0 x314
+1 x1209
<= 0

c_u_x1516_:
-52.0 x315
+1 x1213
<= 0

c_u_x1517_:
-52.0 x316
+1 x1217
<= 0

c_u_x1518_:
-52.0 x317
+1 x1221
<= 0

c_u_x1519_:
-52.0 x318
+1 x1225
<= 0

c_u_x1520_:
-52.0 x319
+1 x1229
<= 0

c_u_x1521_:
-52.0 x320
+1 x1233
<= 0

c_u_x1522_:
-52.0 x321
+1 x1237
<= 0

c_u_x1523_:
-52.0 x322
+1 x1241
<= 0

c_u_x1524_:
-52.0 x323
+1 x1245
<= 0

c_u_x1525_:
-52.0 x324
+1 x1249
<= 0

c_u_x1526_:
-52.0 x326
+1 x1253
<= 0

c_u_x1527_:
-52.0 x327
+1 x1257
<= 0

c_u_x1528_:
-52.0 x328
+1 x1261
<= 0

c_u_x1529_:
-52.0 x329
+1 x1265
<= 0

c_u_x1530_:
-52.0 x330
+1 x1269
<= 0

c_u_x1531_:
-52.0 x331
+1 x1273
<= 0

c_u_x1532_:
-52.0 x332
+1 x1277
<= 0

c_u_x1533_:
-52.0 x333
+1 x1281
<= 0

c_u_x1534_:
-52.0 x334
+1 x1285
<= 0

c_u_x1535_:
-52.0 x335
+1 x1289
<= 0

c_u_x1536_:
-52.0 x336
+1 x1293
<= 0

c_u_x1537_:
-52.0 x337
+1 x1297
<= 0

c_u_x1538_:
-52.0 x79
+1 x340
<= 0

c_u_x1539_:
-52.0 x80
+1 x344
<= 0

c_u_x1540_:
-52.0 x81
+1 x348
<= 0

c_u_x1541_:
-52.0 x82
+1 x352
<= 0

c_u_x1542_:
-52.0 x83
+1 x356
<= 0

c_u_x1543_:
-52.0 x84
+1 x360
<= 0

c_u_x1544_:
-52.0 x85
+1 x364
<= 0

c_u_x1545_:
-52.0 x86
+1 x368
<= 0

c_u_x1546_:
-52.0 x87
+1 x372
<= 0

c_u_x1547_:
-52.0 x88
+1 x376
<= 0

c_u_x1548_:
-52.0 x89
+1 x380
<= 0

c_u_x1549_:
-52.0 x90
+1 x384
<= 0

c_u_x1550_:
-52.0 x92
+1 x388
<= 0

c_u_x1551_:
-52.0 x93
+1 x392
<= 0

c_u_x1552_:
-52.0 x94
+1 x396
<= 0

c_u_x1553_:
-52.0 x95
+1 x400
<= 0

c_u_x1554_:
-52.0 x96
+1 x404
<= 0

c_u_x1555_:
-52.0 x97
+1 x408
<= 0

c_u_x1556_:
-52.0 x98
+1 x412
<= 0

c_u_x1557_:
-52.0 x99
+1 x416
<= 0

c_u_x1558_:
-52.0 x100
+1 x420
<= 0

c_u_x1559_:
-52.0 x101
+1 x424
<= 0

c_u_x1560_:
-52.0 x102
+1 x428
<= 0

c_u_x1561_:
-52.0 x103
+1 x432
<= 0

c_u_x1562_:
-52.0 x105
+1 x436
<= 0

c_u_x1563_:
-52.0 x106
+1 x440
<= 0

c_u_x1564_:
-52.0 x107
+1 x444
<= 0

c_u_x1565_:
-52.0 x108
+1 x448
<= 0

c_u_x1566_:
-52.0 x109
+1 x452
<= 0

c_u_x1567_:
-52.0 x110
+1 x456
<= 0

c_u_x1568_:
-52.0 x111
+1 x460
<= 0

c_u_x1569_:
-52.0 x112
+1 x464
<= 0

c_u_x1570_:
-52.0 x113
+1 x468
<= 0

c_u_x1571_:
-52.0 x114
+1 x472
<= 0

c_u_x1572_:
-52.0 x115
+1 x476
<= 0

c_u_x1573_:
-52.0 x116
+1 x480
<= 0

c_u_x1574_:
-52.0 x118
+1 x484
<= 0

c_u_x1575_:
-52.0 x119
+1 x488
<= 0

c_u_x1576_:
-52.0 x120
+1 x492
<= 0

c_u_x1577_:
-52.0 x121
+1 x496
<= 0

c_u_x1578_:
-52.0 x122
+1 x500
<= 0

c_u_x1579_:
-52.0 x123
+1 x504
<= 0

c_u_x1580_:
-52.0 x124
+1 x508
<= 0

c_u_x1581_:
-52.0 x125
+1 x512
<= 0

c_u_x1582_:
-52.0 x126
+1 x516
<= 0

c_u_x1583_:
-52.0 x127
+1 x520
<= 0

c_u_x1584_:
-52.0 x128
+1 x524
<= 0

c_u_x1585_:
-52.0 x129
+1 x528
<= 0

c_u_x1586_:
-52.0 x131
+1 x532
<= 0

c_u_x1587_:
-52.0 x132
+1 x536
<= 0

c_u_x1588_:
-52.0 x133
+1 x540
<= 0

c_u_x1589_:
-52.0 x134
+1 x544
<= 0

c_u_x1590_:
-52.0 x135
+1 x548
<= 0

c_u_x1591_:
-52.0 x136
+1 x552
<= 0

c_u_x1592_:
-52.0 x137
+1 x556
<= 0

c_u_x1593_:
-52.0 x138
+1 x560
<= 0

c_u_x1594_:
-52.0 x139
+1 x564
<= 0

c_u_x1595_:
-52.0 x140
+1 x568
<= 0

c_u_x1596_:
-52.0 x141
+1 x572
<= 0

c_u_x1597_:
-52.0 x142
+1 x576
<= 0

c_u_x1598_:
-52.0 x144
+1 x580
<= 0

c_u_x1599_:
-52.0 x145
+1 x584
<= 0

c_u_x1600_:
-52.0 x146
+1 x588
<= 0

c_u_x1601_:
-52.0 x147
+1 x592
<= 0

c_u_x1602_:
-52.0 x148
+1 x596
<= 0

c_u_x1603_:
-52.0 x149
+1 x600
<= 0

c_u_x1604_:
-52.0 x150
+1 x604
<= 0

c_u_x1605_:
-52.0 x151
+1 x608
<= 0

c_u_x1606_:
-52.0 x152
+1 x612
<= 0

c_u_x1607_:
-52.0 x153
+1 x616
<= 0

c_u_x1608_:
-52.0 x154
+1 x620
<= 0

c_u_x1609_:
-52.0 x155
+1 x624
<= 0

c_u_x1610_:
-52.0 x157
+1 x628
<= 0

c_u_x1611_:
-52.0 x158
+1 x632
<= 0

c_u_x1612_:
-52.0 x159
+1 x636
<= 0

c_u_x1613_:
-52.0 x160
+1 x640
<= 0

c_u_x1614_:
-52.0 x161
+1 x644
<= 0

c_u_x1615_:
-52.0 x162
+1 x648
<= 0

c_u_x1616_:
-52.0 x163
+1 x652
<= 0

c_u_x1617_:
-52.0 x164
+1 x656
<= 0

c_u_x1618_:
-52.0 x165
+1 x660
<= 0

c_u_x1619_:
-52.0 x166
+1 x664
<= 0

c_u_x1620_:
-52.0 x167
+1 x668
<= 0

c_u_x1621_:
-52.0 x168
+1 x672
<= 0

c_u_x1622_:
-52.0 x170
+1 x676
<= 0

c_u_x1623_:
-52.0 x171
+1 x680
<= 0

c_u_x1624_:
-52.0 x172
+1 x684
<= 0

c_u_x1625_:
-52.0 x173
+1 x688
<= 0

c_u_x1626_:
-52.0 x174
+1 x692
<= 0

c_u_x1627_:
-52.0 x175
+1 x696
<= 0

c_u_x1628_:
-52.0 x176
+1 x700
<= 0

c_u_x1629_:
-52.0 x177
+1 x704
<= 0

c_u_x1630_:
-52.0 x178
+1 x708
<= 0

c_u_x1631_:
-52.0 x179
+1 x712
<= 0

c_u_x1632_:
-52.0 x180
+1 x716
<= 0

c_u_x1633_:
-52.0 x181
+1 x720
<= 0

c_u_x1634_:
-52.0 x183
+1 x724
<= 0

c_u_x1635_:
-52.0 x184
+1 x728
<= 0

c_u_x1636_:
-52.0 x185
+1 x732
<= 0

c_u_x1637_:
-52.0 x186
+1 x736
<= 0

c_u_x1638_:
-52.0 x187
+1 x740
<= 0

c_u_x1639_:
-52.0 x188
+1 x744
<= 0

c_u_x1640_:
-52.0 x189
+1 x748
<= 0

c_u_x1641_:
-52.0 x190
+1 x752
<= 0

c_u_x1642_:
-52.0 x191
+1 x756
<= 0

c_u_x1643_:
-52.0 x192
+1 x760
<= 0

c_u_x1644_:
-52.0 x193
+1 x764
<= 0

c_u_x1645_:
-52.0 x194
+1 x768
<= 0

c_u_x1646_:
-52.0 x196
+1 x772
<= 0

c_u_x1647_:
-52.0 x197
+1 x776
<= 0

c_u_x1648_:
-52.0 x198
+1 x780
<= 0

c_u_x1649_:
-52.0 x199
+1 x784
<= 0

c_u_x1650_:
-52.0 x200
+1 x788
<= 0

c_u_x1651_:
-52.0 x201
+1 x792
<= 0

c_u_x1652_:
-52.0 x202
+1 x796
<= 0

c_u_x1653_:
-52.0 x203
+1 x800
<= 0

c_u_x1654_:
-52.0 x204
+1 x804
<= 0

c_u_x1655_:
-52.0 x205
+1 x808
<= 0

c_u_x1656_:
-52.0 x206
+1 x812
<= 0

c_u_x1657_:
-52.0 x207
+1 x816
<= 0

c_u_x1658_:
-52.0 x209
+1 x820
<= 0

c_u_x1659_:
-52.0 x210
+1 x824
<= 0

c_u_x1660_:
-52.0 x211
+1 x828
<= 0

c_u_x1661_:
-52.0 x212
+1 x832
<= 0

c_u_x1662_:
-52.0 x213
+1 x836
<= 0

c_u_x1663_:
-52.0 x214
+1 x840
<= 0

c_u_x1664_:
-52.0 x215
+1 x844
<= 0

c_u_x1665_:
-52.0 x216
+1 x848
<= 0

c_u_x1666_:
-52.0 x217
+1 x852
<= 0

c_u_x1667_:
-52.0 x218
+1 x856
<= 0

c_u_x1668_:
-52.0 x219
+1 x860
<= 0

c_u_x1669_:
-52.0 x220
+1 x864
<= 0

c_u_x1670_:
-52.0 x222
+1 x868
<= 0

c_u_x1671_:
-52.0 x223
+1 x872
<= 0

c_u_x1672_:
-52.0 x224
+1 x876
<= 0

c_u_x1673_:
-52.0 x225
+1 x880
<= 0

c_u_x1674_:
-52.0 x226
+1 x884
<= 0

c_u_x1675_:
-52.0 x227
+1 x888
<= 0

c_u_x1676_:
-52.0 x228
+1 x892
<= 0

c_u_x1677_:
-52.0 x229
+1 x896
<= 0

c_u_x1678_:
-52.0 x230
+1 x900
<= 0

c_u_x1679_:
-52.0 x231
+1 x904
<= 0

c_u_x1680_:
-52.0 x232
+1 x908
<= 0

c_u_x1681_:
-52.0 x233
+1 x912
<= 0

c_u_x1682_:
-52.0 x235
+1 x916
<= 0

c_u_x1683_:
-52.0 x236
+1 x920
<= 0

c_u_x1684_:
-52.0 x237
+1 x924
<= 0

c_u_x1685_:
-52.0 x238
+1 x928
<= 0

c_u_x1686_:
-52.0 x239
+1 x932
<= 0

c_u_x1687_:
-52.0 x240
+1 x936
<= 0

c_u_x1688_:
-52.0 x241
+1 x940
<= 0

c_u_x1689_:
-52.0 x242
+1 x944
<= 0

c_u_x1690_:
-52.0 x243
+1 x948
<= 0

c_u_x1691_:
-52.0 x244
+1 x952
<= 0

c_u_x1692_:
-52.0 x245
+1 x956
<= 0

c_u_x1693_:
-52.0 x246
+1 x960
<= 0

c_u_x1694_:
-52.0 x248
+1 x964
<= 0

c_u_x1695_:
-52.0 x249
+1 x968
<= 0

c_u_x1696_:
-52.0 x250
+1 x972
<= 0

c_u_x1697_:
-52.0 x251
+1 x976
<= 0

c_u_x1698_:
-52.0 x252
+1 x980
<= 0

c_u_x1699_:
-52.0 x253
+1 x984
<= 0

c_u_x1700_:
-52.0 x254
+1 x988
<= 0

c_u_x1701_:
-52.0 x255
+1 x992
<= 0

c_u_x1702_:
-52.0 x256
+1 x996
<= 0

c_u_x1703_:
-52.0 x257
+1 x1000
<= 0

c_u_x1704_:
-52.0 x258
+1 x1004
<= 0

c_u_x1705_:
-52.0 x259
+1 x1008
<= 0

c_u_x1706_:
-52.0 x261
+1 x1012
<= 0

c_u_x1707_:
-52.0 x262
+1 x1016
<= 0

c_u_x1708_:
-52.0 x263
+1 x1020
<= 0

c_u_x1709_:
-52.0 x264
+1 x1024
<= 0

c_u_x1710_:
-52.0 x265
+1 x1028
<= 0

c_u_x1711_:
-52.0 x266
+1 x1032
<= 0

c_u_x1712_:
-52.0 x267
+1 x1036
<= 0

c_u_x1713_:
-52.0 x268
+1 x1040
<= 0

c_u_x1714_:
-52.0 x269
+1 x1044
<= 0

c_u_x1715_:
-52.0 x270
+1 x1048
<= 0

c_u_x1716_:
-52.0 x271
+1 x1052
<= 0

c_u_x1717_:
-52.0 x272
+1 x1056
<= 0

c_u_x1718_:
-52.0 x274
+1 x1060
<= 0

c_u_x1719_:
-52.0 x275
+1 x1064
<= 0

c_u_x1720_:
-52.0 x276
+1 x1068
<= 0

c_u_x1721_:
-52.0 x277
+1 x1072
<= 0

c_u_x1722_:
-52.0 x278
+1 x1076
<= 0

c_u_x1723_:
-52.0 x279
+1 x1080
<= 0

c_u_x1724_:
-52.0 x280
+1 x1084
<= 0

c_u_x1725_:
-52.0 x281
+1 x1088
<= 0

c_u_x1726_:
-52.0 x282
+1 x1092
<= 0

c_u_x1727_:
-52.0 x283
+1 x1096
<= 0

c_u_x1728_:
-52.0 x284
+1 x1100
<= 0

c_u_x1729_:
-52.0 x285
+1 x1104
<= 0

c_u_x1730_:
-52.0 x287
+1 x1108
<= 0

c_u_x1731_:
-52.0 x288
+1 x1112
<= 0

c_u_x1732_:
-52.0 x289
+1 x1116
<= 0

c_u_x1733_:
-52.0 x290
+1 x1120
<= 0

c_u_x1734_:
-52.0 x291
+1 x1124
<= 0

c_u_x1735_:
-52.0 x292
+1 x1128
<= 0

c_u_x1736_:
-52.0 x293
+1 x1132
<= 0

c_u_x1737_:
-52.0 x294
+1 x1136
<= 0

c_u_x1738_:
-52.0 x295
+1 x1140
<= 0

c_u_x1739_:
-52.0 x296
+1 x1144
<= 0

c_u_x1740_:
-52.0 x297
+1 x1148
<= 0

c_u_x1741_:
-52.0 x298
+1 x1152
<= 0

c_u_x1742_:
-52.0 x300
+1 x1156
<= 0

c_u_x1743_:
-52.0 x301
+1 x1160
<= 0

c_u_x1744_:
-52.0 x302
+1 x1164
<= 0

c_u_x1745_:
-52.0 x303
+1 x1168
<= 0

c_u_x1746_:
-52.0 x304
+1 x1172
<= 0

c_u_x1747_:
-52.0 x305
+1 x1176
<= 0

c_u_x1748_:
-52.0 x306
+1 x1180
<= 0

c_u_x1749_:
-52.0 x307
+1 x1184
<= 0

c_u_x1750_:
-52.0 x308
+1 x1188
<= 0

c_u_x1751_:
-52.0 x309
+1 x1192
<= 0

c_u_x1752_:
-52.0 x310
+1 x1196
<= 0

c_u_x1753_:
-52.0 x311
+1 x1200
<= 0

c_u_x1754_:
-52.0 x313
+1 x1204
<= 0

c_u_x1755_:
-52.0 x314
+1 x1208
<= 0

c_u_x1756_:
-52.0 x315
+1 x1212
<= 0

c_u_x1757_:
-52.0 x316
+1 x1216
<= 0

c_u_x1758_:
-52.0 x317
+1 x1220
<= 0

c_u_x1759_:
-52.0 x318
+1 x1224
<= 0

c_u_x1760_:
-52.0 x319
+1 x1228
<= 0

c_u_x1761_:
-52.0 x320
+1 x1232
<= 0

c_u_x1762_:
-52.0 x321
+1 x1236
<= 0

c_u_x1763_:
-52.0 x322
+1 x1240
<= 0

c_u_x1764_:
-52.0 x323
+1 x1244
<= 0

c_u_x1765_:
-52.0 x324
+1 x1248
<= 0

c_u_x1766_:
-52.0 x326
+1 x1252
<= 0

c_u_x1767_:
-52.0 x327
+1 x1256
<= 0

c_u_x1768_:
-52.0 x328
+1 x1260
<= 0

c_u_x1769_:
-52.0 x329
+1 x1264
<= 0

c_u_x1770_:
-52.0 x330
+1 x1268
<= 0

c_u_x1771_:
-52.0 x331
+1 x1272
<= 0

c_u_x1772_:
-52.0 x332
+1 x1276
<= 0

c_u_x1773_:
-52.0 x333
+1 x1280
<= 0

c_u_x1774_:
-52.0 x334
+1 x1284
<= 0

c_u_x1775_:
-52.0 x335
+1 x1288
<= 0

c_u_x1776_:
-52.0 x336
+1 x1292
<= 0

c_u_x1777_:
-52.0 x337
+1 x1296
<= 0

c_e_x1778_:
+1 x339
+1 x387
+1 x435
+1 x483
+1 x531
+1 x579
+1 x627
+1 x675
+1 x723
+1 x771
+1 x819
+1 x867
+1 x915
+1 x963
+1 x1011
+1 x1059
+1 x1107
+1 x1155
+1 x1203
+1 x1251
= 3.0

c_e_x1779_:
+1 x343
+1 x391
+1 x439
+1 x487
+1 x535
+1 x583
+1 x631
+1 x679
+1 x727
+1 x775
+1 x823
+1 x871
+1 x919
+1 x967
+1 x1015
+1 x1063
+1 x1111
+1 x1159
+1 x1207
+1 x1255
= 46.0

c_e_x1780_:
+1 x347
+1 x395
+1 x443
+1 x491
+1 x539
+1 x587
+1 x635
+1 x683
+1 x731
+1 x779
+1 x827
+1 x875
+1 x923
+1 x971
+1 x1019
+1 x1067
+1 x1115
+1 x1163
+1 x1211
+1 x1259
= 3.0

c_e_x1781_:
+1 x351
+1 x399
+1 x447
+1 x495
+1 x543
+1 x591
+1 x639
+1 x687
+1 x735
+1 x783
+1 x831
+1 x879
+1 x927
+1 x975
+1 x1023
+1 x1071
+1 x1119
+1 x1167
+1 x1215
+1 x1263
= 3.0

c_e_x1782_:
+1 x355
+1 x403
+1 x451
+1 x499
+1 x547
+1 x595
+1 x643
+1 x691
+1 x739
+1 x787
+1 x835
+1 x883
+1 x931
+1 x979
+1 x1027
+1 x1075
+1 x1123
+1 x1171
+1 x1219
+1 x1267
= 26.0

c_e_x1783_:
+1 x359
+1 x407
+1 x455
+1 x503
+1 x551
+1 x599
+1 x647
+1 x695
+1 x743
+1 x791
+1 x839
+1 x887
+1 x935
+1 x983
+1 x1031
+1 x1079
+1 x1127
+1 x1175
+1 x1223
+1 x1271
= 3.0

c_e_x1784_:
+1 x363
+1 x411
+1 x459
+1 x507
+1 x555
+1 x603
+1 x651
+1 x699
+1 x747
+1 x795
+1 x843
+1 x891
+1 x939
+1 x987
+1 x1035
+1 x1083
+1 x1131
+1 x1179
+1 x1227
+1 x1275
= 3.0

c_e_x1785_:
+1 x367
+1 x415
+1 x463
+1 x511
+1 x559
+1 x607
+1 x655
+1 x703
+1 x751
+1 x799
+1 x847
+1 x895
+1 x943
+1 x991
+1 x1039
+1 x1087
+1 x1135
+1 x1183
+1 x1231
+1 x1279
= 37.0

c_e_x1786_:
+1 x371
+1 x419
+1 x467
+1 x515
+1 x563
+1 x611
+1 x659
+1 x707
+1 x755
+1 x803
+1 x851
+1 x899
+1 x947
+1 x995
+1 x1043
+1 x1091
+1 x1139
+1 x1187
+1 x1235
+1 x1283
= 3.0

c_e_x1787_:
+1 x375
+1 x423
+1 x471
+1 x519
+1 x567
+1 x615
+1 x663
+1 x711
+1 x759
+1 x807
+1 x855
+1 x903
+1 x951
+1 x999
+1 x1047
+1 x1095
+1 x1143
+1 x1191
+1 x1239
+1 x1287
= 3.0

c_e_x1788_:
+1 x379
+1 x427
+1 x475
+1 x523
+1 x571
+1 x619
+1 x667
+1 x715
+1 x763
+1 x811
+1 x859
+1 x907
+1 x955
+1 x1003
+1 x1051
+1 x1099
+1 x1147
+1 x1195
+1 x1243
+1 x1291
= 11.0

c_e_x1789_:
+1 x383
+1 x431
+1 x479
+1 x527
+1 x575
+1 x623
+1 x671
+1 x719
+1 x767
+1 x815
+1 x863
+1 x911
+1 x959
+1 x1007
+1 x1055
+1 x1103
+1 x1151
+1 x1199
+1 x1247
+1 x1295
= 3.0

c_u_x1790_:
+52.0 x79
-1 x341
+1 x1791
<= 52.0

c_u_x1792_:
+52.0 x80
-1 x345
+1 x1793
<= 52.0

c_u_x1794_:
+52.0 x81
-1 x349
+1 x1795
<= 52.0

c_u_x1796_:
+52.0 x82
-1 x353
+1 x1797
<= 52.0

c_u_x1798_:
+52.0 x83
-1 x357
+1 x1799
<= 52.0

c_u_x1800_:
+52.0 x84
-1 x361
+1 x1801
<= 52.0

c_u_x1802_:
+52.0 x85
-1 x365
+1 x1803
<= 52.0

c_u_x1804_:
+52.0 x86
-1 x369
+1 x1805
<= 52.0

c_u_x1806_:
+52.0 x87
-1 x373
+1 x1807
<= 52.0

c_u_x1808_:
+52.0 x88
-1 x377
+1 x1809
<= 52.0

c_u_x1810_:
+52.0 x89
-1 x381
+1 x1811
<= 52.0

c_u_x1812_:
+52.0 x90
-1 x385
+1 x1813
<= 52.0

c_u_x1814_:
+52.0 x92
-1 x389
+1 x1791
<= 52.0

c_u_x1815_:
+52.0 x93
-1 x393
+1 x1793
<= 52.0

c_u_x1816_:
+52.0 x94
-1 x397
+1 x1795
<= 52.0

c_u_x1817_:
+52.0 x95
-1 x401
+1 x1797
<= 52.0

c_u_x1818_:
+52.0 x96
-1 x405
+1 x1799
<= 52.0

c_u_x1819_:
+52.0 x97
-1 x409
+1 x1801
<= 52.0

c_u_x1820_:
+52.0 x98
-1 x413
+1 x1803
<= 52.0

c_u_x1821_:
+52.0 x99
-1 x417
+1 x1805
<= 52.0

c_u_x1822_:
+52.0 x100
-1 x421
+1 x1807
<= 52.0

c_u_x1823_:
+52.0 x101
-1 x425
+1 x1809
<= 52.0

c_u_x1824_:
+52.0 x102
-1 x429
+1 x1811
<= 52.0

c_u_x1825_:
+52.0 x103
-1 x433
+1 x1813
<= 52.0

c_u_x1826_:
+52.0 x105
-1 x437
+1 x1791
<= 52.0

c_u_x1827_:
+52.0 x106
-1 x441
+1 x1793
<= 52.0

c_u_x1828_:
+52.0 x107
-1 x445
+1 x1795
<= 52.0

c_u_x1829_:
+52.0 x108
-1 x449
+1 x1797
<= 52.0

c_u_x1830_:
+52.0 x109
-1 x453
+1 x1799
<= 52.0

c_u_x1831_:
+52.0 x110
-1 x457
+1 x1801
<= 52.0

c_u_x1832_:
+52.0 x111
-1 x461
+1 x1803
<= 52.0

c_u_x1833_:
+52.0 x112
-1 x465
+1 x1805
<= 52.0

c_u_x1834_:
+52.0 x113
-1 x469
+1 x1807
<= 52.0

c_u_x1835_:
+52.0 x114
-1 x473
+1 x1809
<= 52.0

c_u_x1836_:
+52.0 x115
-1 x477
+1 x1811
<= 52.0

c_u_x1837_:
+52.0 x116
-1 x481
+1 x1813
<= 52.0

c_u_x1838_:
+52.0 x118
-1 x485
+1 x1791
<= 52.0

c_u_x1839_:
+52.0 x119
-1 x489
+1 x1793
<= 52.0

c_u_x1840_:
+52.0 x120
-1 x493
+1 x1795
<= 52.0

c_u_x1841_:
+52.0 x121
-1 x497
+1 x1797
<= 52.0

c_u_x1842_:
+52.0 x122
-1 x501
+1 x1799
<= 52.0

c_u_x1843_:
+52.0 x123
-1 x505
+1 x1801
<= 52.0

c_u_x1844_:
+52.0 x124
-1 x509
+1 x1803
<= 52.0

c_u_x1845_:
+52.0 x125
-1 x513
+1 x1805
<= 52.0

c_u_x1846_:
+52.0 x126
-1 x517
+1 x1807
<= 52.0

c_u_x1847_:
+52.0 x127
-1 x521
+1 x1809
<= 52.0

c_u_x1848_:
+52.0 x128
-1 x525
+1 x1811
<= 52.0

c_u_x1849_:
+52.0 x129
-1 x529
+1 x1813
<= 52.0

c_u_x1850_:
+52.0 x131
-1 x533
+1 x1791
<= 52.0

c_u_x1851_:
+52.0 x132
-1 x537
+1 x1793
<= 52.0

c_u_x1852_:
+52.0 x133
-1 x541
+1 x1795
<= 52.0

c_u_x1853_:
+52.0 x134
-1 x545
+1 x1797
<= 52.0

c_u_x1854_:
+52.0 x135
-1 x549
+1 x1799
<= 52.0

c_u_x1855_:
+52.0 x136
-1 x553
+1 x1801
<= 52.0

c_u_x1856_:
+52.0 x137
-1 x557
+1 x1803
<= 52.0

c_u_x1857_:
+52.0 x138
-1 x561
+1 x1805
<= 52.0

c_u_x1858_:
+52.0 x139
-1 x565
+1 x1807
<= 52.0

c_u_x1859_:
+52.0 x140
-1 x569
+1 x1809
<= 52.0

c_u_x1860_:
+52.0 x141
-1 x573
+1 x1811
<= 52.0

c_u_x1861_:
+52.0 x142
-1 x577
+1 x1813
<= 52.0

c_u_x1862_:
+52.0 x144
-1 x581
+1 x1791
<= 52.0

c_u_x1863_:
+52.0 x145
-1 x585
+1 x1793
<= 52.0

c_u_x1864_:
+52.0 x146
-1 x589
+1 x1795
<= 52.0

c_u_x1865_:
+52.0 x147
-1 x593
+1 x1797
<= 52.0

c_u_x1866_:
+52.0 x148
-1 x597
+1 x1799
<= 52.0

c_u_x1867_:
+52.0 x149
-1 x601
+1 x1801
<= 52.0

c_u_x1868_:
+52.0 x150
-1 x605
+1 x1803
<= 52.0

c_u_x1869_:
+52.0 x151
-1 x609
+1 x1805
<= 52.0

c_u_x1870_:
+52.0 x152
-1 x613
+1 x1807
<= 52.0

c_u_x1871_:
+52.0 x153
-1 x617
+1 x1809
<= 52.0

c_u_x1872_:
+52.0 x154
-1 x621
+1 x1811
<= 52.0

c_u_x1873_:
+52.0 x155
-1 x625
+1 x1813
<= 52.0

c_u_x1874_:
+52.0 x157
-1 x629
+1 x1791
<= 52.0

c_u_x1875_:
+52.0 x158
-1 x633
+1 x1793
<= 52.0

c_u_x1876_:
+52.0 x159
-1 x637
+1 x1795
<= 52.0

c_u_x1877_:
+52.0 x160
-1 x641
+1 x1797
<= 52.0

c_u_x1878_:
+52.0 x161
-1 x645
+1 x1799
<= 52.0

c_u_x1879_:
+52.0 x162
-1 x649
+1 x1801
<= 52.0

c_u_x1880_:
+52.0 x163
-1 x653
+1 x1803
<= 52.0

c_u_x1881_:
+52.0 x164
-1 x657
+1 x1805
<= 52.0

c_u_x1882_:
+52.0 x165
-1 x661
+1 x1807
<= 52.0

c_u_x1883_:
+52.0 x166
-1 x665
+1 x1809
<= 52.0

c_u_x1884_:
+52.0 x167
-1 x669
+1 x1811
<= 52.0

c_u_x1885_:
+52.0 x168
-1 x673
+1 x1813
<= 52.0

c_u_x1886_:
+52.0 x170
-1 x677
+1 x1791
<= 52.0

c_u_x1887_:
+52.0 x171
-1 x681
+1 x1793
<= 52.0

c_u_x1888_:
+52.0 x172
-1 x685
+1 x1795
<= 52.0

c_u_x1889_:
+52.0 x173
-1 x689
+1 x1797
<= 52.0

c_u_x1890_:
+52.0 x174
-1 x693
+1 x1799
<= 52.0

c_u_x1891_:
+52.0 x175
-1 x697
+1 x1801
<= 52.0

c_u_x1892_:
+52.0 x176
-1 x701
+1 x1803
<= 52.0

c_u_x1893_:
+52.0 x177
-1 x705
+1 x1805
<= 52.0

c_u_x1894_:
+52.0 x178
-1 x709
+1 x1807
<= 52.0

c_u_x1895_:
+52.0 x179
-1 x713
+1 x1809
<= 52.0

c_u_x1896_:
+52.0 x180
-1 x717
+1 x1811
<= 52.0

c_u_x1897_:
+52.0 x181
-1 x721
+1 x1813
<= 52.0

c_u_x1898_:
+52.0 x183
-1 x725
+1 x1791
<= 52.0

c_u_x1899_:
+52.0 x184
-1 x729
+1 x1793
<= 52.0

c_u_x1900_:
+52.0 x185
-1 x733
+1 x1795
<= 52.0

c_u_x1901_:
+52.0 x186
-1 x737
+1 x1797
<= 52.0

c_u_x1902_:
+52.0 x187
-1 x741
+1 x1799
<= 52.0

c_u_x1903_:
+52.0 x188
-1 x745
+1 x1801
<= 52.0

c_u_x1904_:
+52.0 x189
-1 x749
+1 x1803
<= 52.0

c_u_x1905_:
+52.0 x190
-1 x753
+1 x1805
<= 52.0

c_u_x1906_:
+52.0 x191
-1 x757
+1 x1807
<= 52.0

c_u_x1907_:
+52.0 x192
-1 x761
+1 x1809
<= 52.0

c_u_x1908_:
+52.0 x193
-1 x765
+1 x1811
<= 52.0

c_u_x1909_:
+52.0 x194
-1 x769
+1 x1813
<= 52.0

c_u_x1910_:
+52.0 x196
-1 x773
+1 x1791
<= 52.0

c_u_x1911_:
+52.0 x197
-1 x777
+1 x1793
<= 52.0

c_u_x1912_:
+52.0 x198
-1 x781
+1 x1795
<= 52.0

c_u_x1913_:
+52.0 x199
-1 x785
+1 x1797
<= 52.0

c_u_x1914_:
+52.0 x200
-1 x789
+1 x1799
<= 52.0

c_u_x1915_:
+52.0 x201
-1 x793
+1 x1801
<= 52.0

c_u_x1916_:
+52.0 x202
-1 x797
+1 x1803
<= 52.0

c_u_x1917_:
+52.0 x203
-1 x801
+1 x1805
<= 52.0

c_u_x1918_:
+52.0 x204
-1 x805
+1 x1807
<= 52.0

c_u_x1919_:
+52.0 x205
-1 x809
+1 x1809
<= 52.0

c_u_x1920_:
+52.0 x206
-1 x813
+1 x1811
<= 52.0

c_u_x1921_:
+52.0 x207
-1 x817
+1 x1813
<= 52.0

c_u_x1922_:
+52.0 x209
-1 x821
+1 x1791
<= 52.0

c_u_x1923_:
+52.0 x210
-1 x825
+1 x1793
<= 52.0

c_u_x1924_:
+52.0 x211
-1 x829
+1 x1795
<= 52.0

c_u_x1925_:
+52.0 x212
-1 x833
+1 x1797
<= 52.0

c_u_x1926_:
+52.0 x213
-1 x837
+1 x1799
<= 52.0

c_u_x1927_:
+52.0 x214
-1 x841
+1 x1801
<= 52.0

c_u_x1928_:
+52.0 x215
-1 x845
+1 x1803
<= 52.0

c_u_x1929_:
+52.0 x216
-1 x849
+1 x1805
<= 52.0

c_u_x1930_:
+52.0 x217
-1 x853
+1 x1807
<= 52.0

c_u_x1931_:
+52.0 x218
-1 x857
+1 x1809
<= 52.0

c_u_x1932_:
+52.0 x219
-1 x861
+1 x1811
<= 52.0

c_u_x1933_:
+52.0 x220
-1 x865
+1 x1813
<= 52.0

c_u_x1934_:
+52.0 x222
-1 x869
+1 x1791
<= 52.0

c_u_x1935_:
+52.0 x223
-1 x873
+1 x1793
<= 52.0

c_u_x1936_:
+52.0 x224
-1 x877
+1 x1795
<= 52.0

c_u_x1937_:
+52.0 x225
-1 x881
+1 x1797
<= 52.0

c_u_x1938_:
+52.0 x226
-1 x885
+1 x1799
<= 52.0

c_u_x1939_:
+52.0 x227
-1 x889
+1 x1801
<= 52.0

c_u_x1940_:
+52.0 x228
-1 x893
+1 x1803
<= 52.0

c_u_x1941_:
+52.0 x229
-1 x897
+1 x1805
<= 52.0

c_u_x1942_:
+52.0 x230
-1 x901
+1 x1807
<= 52.0

c_u_x1943_:
+52.0 x231
-1 x905
+1 x1809
<= 52.0

c_u_x1944_:
+52.0 x232
-1 x909
+1 x1811
<= 52.0

c_u_x1945_:
+52.0 x233
-1 x913
+1 x1813
<= 52.0

c_u_x1946_:
+52.0 x235
-1 x917
+1 x1791
<= 52.0

c_u_x1947_:
+52.0 x236
-1 x921
+1 x1793
<= 52.0

c_u_x1948_:
+52.0 x237
-1 x925
+1 x1795
<= 52.0

c_u_x1949_:
+52.0 x238
-1 x929
+1 x1797
<= 52.0

c_u_x1950_:
+52.0 x239
-1 x933
+1 x1799
<= 52.0

c_u_x1951_:
+52.0 x240
-1 x937
+1 x1801
<= 52.0

c_u_x1952_:
+52.0 x241
-1 x941
+1 x1803
<= 52.0

c_u_x1953_:
+52.0 x242
-1 x945
+1 x1805
<= 52.0

c_u_x1954_:
+52.0 x243
-1 x949
+1 x1807
<= 52.0

c_u_x1955_:
+52.0 x244
-1 x953
+1 x1809
<= 52.0

c_u_x1956_:
+52.0 x245
-1 x957
+1 x1811
<= 52.0

c_u_x1957_:
+52.0 x246
-1 x961
+1 x1813
<= 52.0

c_u_x1958_:
+52.0 x248
-1 x965
+1 x1791
<= 52.0

c_u_x1959_:
+52.0 x249
-1 x969
+1 x1793
<= 52.0

c_u_x1960_:
+52.0 x250
-1 x973
+1 x1795
<= 52.0

c_u_x1961_:
+52.0 x251
-1 x977
+1 x1797
<= 52.0

c_u_x1962_:
+52.0 x252
-1 x981
+1 x1799
<= 52.0

c_u_x1963_:
+52.0 x253
-1 x985
+1 x1801
<= 52.0

c_u_x1964_:
+52.0 x254
-1 x989
+1 x1803
<= 52.0

c_u_x1965_:
+52.0 x255
-1 x993
+1 x1805
<= 52.0

c_u_x1966_:
+52.0 x256
-1 x997
+1 x1807
<= 52.0

c_u_x1967_:
+52.0 x257
-1 x1001
+1 x1809
<= 52.0

c_u_x1968_:
+52.0 x258
-1 x1005
+1 x1811
<= 52.0

c_u_x1969_:
+52.0 x259
-1 x1009
+1 x1813
<= 52.0

c_u_x1970_:
+52.0 x261
-1 x1013
+1 x1791
<= 52.0

c_u_x1971_:
+52.0 x262
-1 x1017
+1 x1793
<= 52.0

c_u_x1972_:
+52.0 x263
-1 x1021
+1 x1795
<= 52.0

c_u_x1973_:
+52.0 x264
-1 x1025
+1 x1797
<= 52.0

c_u_x1974_:
+52.0 x265
-1 x1029
+1 x1799
<= 52.0

c_u_x1975_:
+52.0 x266
-1 x1033
+1 x1801
<= 52.0

c_u_x1976_:
+52.0 x267
-1 x1037
+1 x1803
<= 52.0

c_u_x1977_:
+52.0 x268
-1 x1041
+1 x1805
<= 52.0

c_u_x1978_:
+52.0 x269
-1 x1045
+1 x1807
<= 52.0

c_u_x1979_:
+52.0 x270
-1 x1049
+1 x1809
<= 52.0

c_u_x1980_:
+52.0 x271
-1 x1053
+1 x1811
<= 52.0

c_u_x1981_:
+52.0 x272
-1 x1057
+1 x1813
<= 52.0

c_u_x1982_:
+52.0 x274
-1 x1061
+1 x1791
<= 52.0

c_u_x1983_:
+52.0 x275
-1 x1065
+1 x1793
<= 52.0

c_u_x1984_:
+52.0 x276
-1 x1069
+1 x1795
<= 52.0

c_u_x1985_:
+52.0 x277
-1 x1073
+1 x1797
<= 52.0

c_u_x1986_:
+52.0 x278
-1 x1077
+1 x1799
<= 52.0

c_u_x1987_:
+52.0 x279
-1 x1081
+1 x1801
<= 52.0

c_u_x1988_:
+52.0 x280
-1 x1085
+1 x1803
<= 52.0

c_u_x1989_:
+52.0 x281
-1 x1089
+1 x1805
<= 52.0

c_u_x1990_:
+52.0 x282
-1 x1093
+1 x1807
<= 52.0

c_u_x1991_:
+52.0 x283
-1 x1097
+1 x1809
<= 52.0

c_u_x1992_:
+52.0 x284
-1 x1101
+1 x1811
<= 52.0

c_u_x1993_:
+52.0 x285
-1 x1105
+1 x1813
<= 52.0

c_u_x1994_:
+52.0 x287
-1 x1109
+1 x1791
<= 52.0

c_u_x1995_:
+52.0 x288
-1 x1113
+1 x1793
<= 52.0

c_u_x1996_:
+52.0 x289
-1 x1117
+1 x1795
<= 52.0

c_u_x1997_:
+52.0 x290
-1 x1121
+1 x1797
<= 52.0

c_u_x1998_:
+52.0 x291
-1 x1125
+1 x1799
<= 52.0

c_u_x1999_:
+52.0 x292
-1 x1129
+1 x1801
<= 52.0

c_u_x2000_:
+52.0 x293
-1 x1133
+1 x1803
<= 52.0

c_u_x2001_:
+52.0 x294
-1 x1137
+1 x1805
<= 52.0

c_u_x2002_:
+52.0 x295
-1 x1141
+1 x1807
<= 52.0

c_u_x2003_:
+52.0 x296
-1 x1145
+1 x1809
<= 52.0

c_u_x2004_:
+52.0 x297
-1 x1149
+1 x1811
<= 52.0

c_u_x2005_:
+52.0 x298
-1 x1153
+1 x1813
<= 52.0

c_u_x2006_:
+52.0 x300
-1 x1157
+1 x1791
<= 52.0

c_u_x2007_:
+52.0 x301
-1 x1161
+1 x1793
<= 52.0

c_u_x2008_:
+52.0 x302
-1 x1165
+1 x1795
<= 52.0

c_u_x2009_:
+52.0 x303
-1 x1169
+1 x1797
<= 52.0

c_u_x2010_:
+52.0 x304
-1 x1173
+1 x1799
<= 52.0

c_u_x2011_:
+52.0 x305
-1 x1177
+1 x1801
<= 52.0

c_u_x2012_:
+52.0 x306
-1 x1181
+1 x1803
<= 52.0

c_u_x2013_:
+52.0 x307
-1 x1185
+1 x1805
<= 52.0

c_u_x2014_:
+52.0 x308
-1 x1189
+1 x1807
<= 52.0

c_u_x2015_:
+52.0 x309
-1 x1193
+1 x1809
<= 52.0

c_u_x2016_:
+52.0 x310
-1 x1197
+1 x1811
<= 52.0

c_u_x2017_:
+52.0 x311
-1 x1201
+1 x1813
<= 52.0

c_u_x2018_:
+52.0 x313
-1 x1205
+1 x1791
<= 52.0

c_u_x2019_:
+52.0 x314
-1 x1209
+1 x1793
<= 52.0

c_u_x2020_:
+52.0 x315
-1 x1213
+1 x1795
<= 52.0

c_u_x2021_:
+52.0 x316
-1 x1217
+1 x1797
<= 52.0

c_u_x2022_:
+52.0 x317
-1 x1221
+1 x1799
<= 52.0

c_u_x2023_:
+52.0 x318
-1 x1225
+1 x1801
<= 52.0

c_u_x2024_:
+52.0 x319
-1 x1229
+1 x1803
<= 52.0

c_u_x2025_:
+52.0 x320
-1 x1233
+1 x1805
<= 52.0

c_u_x2026_:
+52.0 x321
-1 x1237
+1 x1807
<= 52.0

c_u_x2027_:
+52.0 x322
-1 x1241
+1 x1809
<= 52.0

c_u_x2028_:
+52.0 x323
-1 x1245
+1 x1811
<= 52.0

c_u_x2029_:
+52.0 x324
-1 x1249
+1 x1813
<= 52.0

c_u_x2030_:
+52.0 x326
-1 x1253
+1 x1791
<= 52.0

c_u_x2031_:
+52.0 x327
-1 x1257
+1 x1793
<= 52.0

c_u_x2032_:
+52.0 x328
-1 x1261
+1 x1795
<= 52.0

c_u_x2033_:
+52.0 x329
-1 x1265
+1 x1797
<= 52.0

c_u_x2034_:
+52.0 x330
-1 x1269
+1 x1799
<= 52.0

c_u_x2035_:
+52.0 x331
-1 x1273
+1 x1801
<= 52.0

c_u_x2036_:
+52.0 x332
-1 x1277
+1 x1803
<= 52.0

c_u_x2037_:
+52.0 x333
-1 x1281
+1 x1805
<= 52.0

c_u_x2038_:
+52.0 x334
-1 x1285
+1 x1807
<= 52.0

c_u_x2039_:
+52.0 x335
-1 x1289
+1 x1809
<= 52.0

c_u_x2040_:
+52.0 x336
-1 x1293
+1 x1811
<= 52.0

c_u_x2041_:
+52.0 x337
-1 x1297
+1 x1813
<= 52.0

c_u_x2042_:
+52.0 x79
+1 x341
-1 x1791
<= 52.0

c_u_x2043_:
+52.0 x80
+1 x345
-1 x1793
<= 52.0

c_u_x2044_:
+52.0 x81
+1 x349
-1 x1795
<= 52.0

c_u_x2045_:
+52.0 x82
+1 x353
-1 x1797
<= 52.0

c_u_x2046_:
+52.0 x83
+1 x357
-1 x1799
<= 52.0

c_u_x2047_:
+52.0 x84
+1 x361
-1 x1801
<= 52.0

c_u_x2048_:
+52.0 x85
+1 x365
-1 x1803
<= 52.0

c_u_x2049_:
+52.0 x86
+1 x369
-1 x1805
<= 52.0

c_u_x2050_:
+52.0 x87
+1 x373
-1 x1807
<= 52.0

c_u_x2051_:
+52.0 x88
+1 x377
-1 x1809
<= 52.0

c_u_x2052_:
+52.0 x89
+1 x381
-1 x1811
<= 52.0

c_u_x2053_:
+52.0 x90
+1 x385
-1 x1813
<= 52.0

c_u_x2054_:
+52.0 x92
+1 x389
-1 x1791
<= 52.0

c_u_x2055_:
+52.0 x93
+1 x393
-1 x1793
<= 52.0

c_u_x2056_:
+52.0 x94
+1 x397
-1 x1795
<= 52.0

c_u_x2057_:
+52.0 x95
+1 x401
-1 x1797
<= 52.0

c_u_x2058_:
+52.0 x96
+1 x405
-1 x1799
<= 52.0

c_u_x2059_:
+52.0 x97
+1 x409
-1 x1801
<= 52.0

c_u_x2060_:
+52.0 x98
+1 x413
-1 x1803
<= 52.0

c_u_x2061_:
+52.0 x99
+1 x417
-1 x1805
<= 52.0

c_u_x2062_:
+52.0 x100
+1 x421
-1 x1807
<= 52.0

c_u_x2063_:
+52.0 x101
+1 x425
-1 x1809
<= 52.0

c_u_x2064_:
+52.0 x102
+1 x429
-1 x1811
<= 52.0

c_u_x2065_:
+52.0 x103
+1 x433
-1 x1813
<= 52.0

c_u_x2066_:
+52.0 x105
+1 x437
-1 x1791
<= 52.0

c_u_x2067_:
+52.0 x106
+1 x441
-1 x1793
<= 52.0

c_u_x2068_:
+52.0 x107
+1 x445
-1 x1795
<= 52.0

c_u_x2069_:
+52.0 x108
+1 x449
-1 x1797
<= 52.0

c_u_x2070_:
+52.0 x109
+1 x453
-1 x1799
<= 52.0

c_u_x2071_:
+52.0 x110
+1 x457
-1 x1801
<= 52.0

c_u_x2072_:
+52.0 x111
+1 x461
-1 x1803
<= 52.0

c_u_x2073_:
+52.0 x112
+1 x465
-1 x1805
<= 52.0

c_u_x2074_:
+52.0 x113
+1 x469
-1 x1807
<= 52.0

c_u_x2075_:
+52.0 x114
+1 x473
-1 x1809
<= 52.0

c_u_x2076_:
+52.0 x115
+1 x477
-1 x1811
<= 52.0

c_u_x2077_:
+52.0 x116
+1 x481
-1 x1813
<= 52.0

c_u_x2078_:
+52.0 x118
+1 x485
-1 x1791
<= 52.0

c_u_x2079_:
+52.0 x119
+1 x489
-1 x1793
<= 52.0

c_u_x2080_:
+52.0 x120
+1 x493
-1 x1795
<= 52.0

c_u_x2081_:
+52.0 x121
+1 x497
-1 x1797
<= 52.0

c_u_x2082_:
+52.0 x122
+1 x501
-1 x1799
<= 52.0

c_u_x2083_:
+52.0 x123
+1 x505
-1 x1801
<= 52.0

c_u_x2084_:
+52.0 x124
+1 x509
-1 x1803
<= 52.0

c_u_x2085_:
+52.0 x125
+1 x513
-1 x1805
<= 52.0

c_u_x2086_:
+52.0 x126
+1 x517
-1 x1807
<= 52.0

c_u_x2087_:
+52.0 x127
+1 x521
-1 x1809
<= 52.0

c_u_x2088_:
+52.0 x128
+1 x525
-1 x1811
<= 52.0

c_u_x2089_:
+52.0 x129
+1 x529
-1 x1813
<= 52.0

c_u_x2090_:
+52.0 x131
+1 x533
-1 x1791
<= 52.0

c_u_x2091_:
+52.0 x132
+1 x537
-1 x1793
<= 52.0

c_u_x2092_:
+52.0 x133
+1 x541
-1 x1795
<= 52.0

c_u_x2093_:
+52.0 x134
+1 x545
-1 x1797
<= 52.0

c_u_x2094_:
+52.0 x135
+1 x549
-1 x1799
<= 52.0

c_u_x2095_:
+52.0 x136
+1 x553
-1 x1801
<= 52.0

c_u_x2096_:
+52.0 x137
+1 x557
-1 x1803
<= 52.0

c_u_x2097_:
+52.0 x138
+1 x561
-1 x1805
<= 52.0

c_u_x2098_:
+52.0 x139
+1 x565
-1 x1807
<= 52.0

c_u_x2099_:
+52.0 x140
+1 x569
-1 x1809
<= 52.0

c_u_x2100_:
+52.0 x141
+1 x573
-1 x1811
<= 52.0

c_u_x2101_:
+52.0 x142
+1 x577
-1 x1813
<= 52.0

c_u_x2102_:
+52.0 x144
+1 x581
-1 x1791
<= 52.0

c_u_x2103_:
+52.0 x145
+1 x585
-1 x1793
<= 52.0

c_u_x2104_:
+52.0 x146
+1 x589
-1 x1795
<= 52.0

c_u_x2105_:
+52.0 x147
+1 x593
-1 x1797
<= 52.0

c_u_x2106_:
+52.0 x148
+1 x597
-1 x1799
<= 52.0

c_u_x2107_:
+52.0 x149
+1 x601
-1 x1801
<= 52.0

c_u_x2108_:
+52.0 x150
+1 x605
-1 x1803
<= 52.0

c_u_x2109_:
+52.0 x151
+1 x609
-1 x1805
<= 52.0

c_u_x2110_:
+52.0 x152
+1 x613
-1 x1807
<= 52.0

c_u_x2111_:
+52.0 x153
+1 x617
-1 x1809
<= 52.0

c_u_x2112_:
+52.0 x154
+1 x621
-1 x1811
<= 52.0

c_u_x2113_:
+52.0 x155
+1 x625
-1 x1813
<= 52.0

c_u_x2114_:
+52.0 x157
+1 x629
-1 x1791
<= 52.0

c_u_x2115_:
+52.0 x158
+1 x633
-1 x1793
<= 52.0

c_u_x2116_:
+52.0 x159
+1 x637
-1 x1795
<= 52.0

c_u_x2117_:
+52.0 x160
+1 x641
-1 x1797
<= 52.0

c_u_x2118_:
+52.0 x161
+1 x645
-1 x1799
<= 52.0

c_u_x2119_:
+52.0 x162
+1 x649
-1 x1801
<= 52.0

c_u_x2120_:
+52.0 x163
+1 x653
-1 x1803
<= 52.0

c_u_x2121_:
+52.0 x164
+1 x657
-1 x1805
<= 52.0

c_u_x2122_:
+52.0 x165
+1 x661
-1 x1807
<= 52.0

c_u_x2123_:
+52.0 x166
+1 x665
-1 x1809
<= 52.0

c_u_x2124_:
+52.0 x167
+1 x669
-1 x1811
<= 52.0

c_u_x2125_:
+52.0 x168
+1 x673
-1 x1813
<= 52.0

c_u_x2126_:
+52.0 x170
+1 x677
-1 x1791
<= 52.0

c_u_x2127_:
+52.0 x171
+1 x681
-1 x1793
<= 52.0

c_u_x2128_:
+52.0 x172
+1 x685
-1 x1795
<= 52.0

c_u_x2129_:
+52.0 x173
+1 x689
-1 x1797
<= 52.0

c_u_x2130_:
+52.0 x174
+1 x693
-1 x1799
<= 52.0

c_u_x2131_:
+52.0 x175
+1 x697
-1 x1801
<= 52.0

c_u_x2132_:
+52.0 x176
+1 x701
-1 x1803
<= 52.0

c_u_x2133_:
+52.0 x177
+1 x705
-1 x1805
<= 52.0

c_u_x2134_:
+52.0 x178
+1 x709
-1 x1807
<= 52.0

c_u_x2135_:
+52.0 x179
+1 x713
-1 x1809
<= 52.0

c_u_x2136_:
+52.0 x180
+1 x717
-1 x1811
<= 52.0

c_u_x2137_:
+52.0 x181
+1 x721
-1 x1813
<= 52.0

c_u_x2138_:
+52.0 x183
+1 x725
-1 x1791
<= 52.0

c_u_x2139_:
+52.0 x184
+1 x729
-1 x1793
<= 52.0

c_u_x2140_:
+52.0 x185
+1 x733
-1 x1795
<= 52.0

c_u_x2141_:
+52.0 x186
+1 x737
-1 x1797
<= 52.0

c_u_x2142_:
+52.0 x187
+1 x741
-1 x1799
<= 52.0

c_u_x2143_:
+52.0 x188
+1 x745
-1 x1801
<= 52.0

c_u_x2144_:
+52.0 x189
+1 x749
-1 x1803
<= 52.0

c_u_x2145_:
+52.0 x190
+1 x753
-1 x1805
<= 52.0

c_u_x2146_:
+52.0 x191
+1 x757
-1 x1807
<= 52.0

c_u_x2147_:
+52.0 x192
+1 x761
-1 x1809
<= 52.0

c_u_x2148_:
+52.0 x193
+1 x765
-1 x1811
<= 52.0

c_u_x2149_:
+52.0 x194
+1 x769
-1 x1813
<= 52.0

c_u_x2150_:
+52.0 x196
+1 x773
-1 x1791
<= 52.0

c_u_x2151_:
+52.0 x197
+1 x777
-1 x1793
<= 52.0

c_u_x2152_:
+52.0 x198
+1 x781
-1 x1795
<= 52.0

c_u_x2153_:
+52.0 x199
+1 x785
-1 x1797
<= 52.0

c_u_x2154_:
+52.0 x200
+1 x789
-1 x1799
<= 52.0

c_u_x2155_:
+52.0 x201
+1 x793
-1 x1801
<= 52.0

c_u_x2156_:
+52.0 x202
+1 x797
-1 x1803
<= 52.0

c_u_x2157_:
+52.0 x203
+1 x801
-1 x1805
<= 52.0

c_u_x2158_:
+52.0 x204
+1 x805
-1 x1807
<= 52.0

c_u_x2159_:
+52.0 x205
+1 x809
-1 x1809
<= 52.0

c_u_x2160_:
+52.0 x206
+1 x813
-1 x1811
<= 52.0

c_u_x2161_:
+52.0 x207
+1 x817
-1 x1813
<= 52.0

c_u_x2162_:
+52.0 x209
+1 x821
-1 x1791
<= 52.0

c_u_x2163_:
+52.0 x210
+1 x825
-1 x1793
<= 52.0

c_u_x2164_:
+52.0 x211
+1 x829
-1 x1795
<= 52.0

c_u_x2165_:
+52.0 x212
+1 x833
-1 x1797
<= 52.0

c_u_x2166_:
+52.0 x213
+1 x837
-1 x1799
<= 52.0

c_u_x2167_:
+52.0 x214
+1 x841
-1 x1801
<= 52.0

c_u_x2168_:
+52.0 x215
+1 x845
-1 x1803
<= 52.0

c_u_x2169_:
+52.0 x216
+1 x849
-1 x1805
<= 52.0

c_u_x2170_:
+52.0 x217
+1 x853
-1 x1807
<= 52.0

c_u_x2171_:
+52.0 x218
+1 x857
-1 x1809
<= 52.0

c_u_x2172_:
+52.0 x219
+1 x861
-1 x1811
<= 52.0

c_u_x2173_:
+52.0 x220
+1 x865
-1 x1813
<= 52.0

c_u_x2174_:
+52.0 x222
+1 x869
-1 x1791
<= 52.0

c_u_x2175_:
+52.0 x223
+1 x873
-1 x1793
<= 52.0

c_u_x2176_:
+52.0 x224
+1 x877
-1 x1795
<= 52.0

c_u_x2177_:
+52.0 x225
+1 x881
-1 x1797
<= 52.0

c_u_x2178_:
+52.0 x226
+1 x885
-1 x1799
<= 52.0

c_u_x2179_:
+52.0 x227
+1 x889
-1 x1801
<= 52.0

c_u_x2180_:
+52.0 x228
+1 x893
-1 x1803
<= 52.0

c_u_x2181_:
+52.0 x229
+1 x897
-1 x1805
<= 52.0

c_u_x2182_:
+52.0 x230
+1 x901
-1 x1807
<= 52.0

c_u_x2183_:
+52.0 x231
+1 x905
-1 x1809
<= 52.0

c_u_x2184_:
+52.0 x232
+1 x909
-1 x1811
<= 52.0

c_u_x2185_:
+52.0 x233
+1 x913
-1 x1813
<= 52.0

c_u_x2186_:
+52.0 x235
+1 x917
-1 x1791
<= 52.0

c_u_x2187_:
+52.0 x236
+1 x921
-1 x1793
<= 52.0

c_u_x2188_:
+52.0 x237
+1 x925
-1 x1795
<= 52.0

c_u_x2189_:
+52.0 x238
+1 x929
-1 x1797
<= 52.0

c_u_x2190_:
+52.0 x239
+1 x933
-1 x1799
<= 52.0

c_u_x2191_:
+52.0 x240
+1 x937
-1 x1801
<= 52.0

c_u_x2192_:
+52.0 x241
+1 x941
-1 x1803
<= 52.0

c_u_x2193_:
+52.0 x242
+1 x945
-1 x1805
<= 52.0

c_u_x2194_:
+52.0 x243
+1 x949
-1 x1807
<= 52.0

c_u_x2195_:
+52.0 x244
+1 x953
-1 x1809
<= 52.0

c_u_x2196_:
+52.0 x245
+1 x957
-1 x1811
<= 52.0

c_u_x2197_:
+52.0 x246
+1 x961
-1 x1813
<= 52.0

c_u_x2198_:
+52.0 x248
+1 x965
-1 x1791
<= 52.0

c_u_x2199_:
+52.0 x249
+1 x969
-1 x1793
<= 52.0

c_u_x2200_:
+52.0 x250
+1 x973
-1 x1795
<= 52.0

c_u_x2201_:
+52.0 x251
+1 x977
-1 x1797
<= 52.0

c_u_x2202_:
+52.0 x252
+1 x981
-1 x1799
<= 52.0

c_u_x2203_:
+52.0 x253
+1 x985
-1 x1801
<= 52.0

c_u_x2204_:
+52.0 x254
+1 x989
-1 x1803
<= 52.0

c_u_x2205_:
+52.0 x255
+1 x993
-1 x1805
<= 52.0

c_u_x2206_:
+52.0 x256
+1 x997
-1 x1807
<= 52.0

c_u_x2207_:
+52.0 x257
+1 x1001
-1 x1809
<= 52.0

c_u_x2208_:
+52.0 x258
+1 x1005
-1 x1811
<= 52.0

c_u_x2209_:
+52.0 x259
+1 x1009
-1 x1813
<= 52.0

c_u_x2210_:
+52.0 x261
+1 x1013
-1 x1791
<= 52.0

c_u_x2211_:
+52.0 x262
+1 x1017
-1 x1793
<= 52.0

c_u_x2212_:
+52.0 x263
+1 x1021
-1 x1795
<= 52.0

c_u_x2213_:
+52.0 x264
+1 x1025
-1 x1797
<= 52.0

c_u_x2214_:
+52.0 x265
+1 x1029
-1 x1799
<= 52.0

c_u_x2215_:
+52.0 x266
+1 x1033
-1 x1801
<= 52.0

c_u_x2216_:
+52.0 x267
+1 x1037
-1 x1803
<= 52.0

c_u_x2217_:
+52.0 x268
+1 x1041
-1 x1805
<= 52.0

c_u_x2218_:
+52.0 x269
+1 x1045
-1 x1807
<= 52.0

c_u_x2219_:
+52.0 x270
+1 x1049
-1 x1809
<= 52.0

c_u_x2220_:
+52.0 x271
+1 x1053
-1 x1811
<= 52.0

c_u_x2221_:
+52.0 x272
+1 x1057
-1 x1813
<= 52.0

c_u_x2222_:
+52.0 x274
+1 x1061
-1 x1791
<= 52.0

c_u_x2223_:
+52.0 x275
+1 x1065
-1 x1793
<= 52.0

c_u_x2224_:
+52.0 x276
+1 x1069
-1 x1795
<= 52.0

c_u_x2225_:
+52.0 x277
+1 x1073
-1 x1797
<= 52.0

c_u_x2226_:
+52.0 x278
+1 x1077
-1 x1799
<= 52.0

c_u_x2227_:
+52.0 x279
+1 x1081
-1 x1801
<= 52.0

c_u_x2228_:
+52.0 x280
+1 x1085
-1 x1803
<= 52.0

c_u_x2229_:
+52.0 x281
+1 x1089
-1 x1805
<= 52.0

c_u_x2230_:
+52.0 x282
+1 x1093
-1 x1807
<= 52.0

c_u_x2231_:
+52.0 x283
+1 x1097
-1 x1809
<= 52.0

c_u_x2232_:
+52.0 x284
+1 x1101
-1 x1811
<= 52.0

c_u_x2233_:
+52.0 x285
+1 x1105
-1 x1813
<= 52.0

c_u_x2234_:
+52.0 x287
+1 x1109
-1 x1791
<= 52.0

c_u_x2235_:
+52.0 x288
+1 x1113
-1 x1793
<= 52.0

c_u_x2236_:
+52.0 x289
+1 x1117
-1 x1795
<= 52.0

c_u_x2237_:
+52.0 x290
+1 x1121
-1 x1797
<= 52.0

c_u_x2238_:
+52.0 x291
+1 x1125
-1 x1799
<= 52.0

c_u_x2239_:
+52.0 x292
+1 x1129
-1 x1801
<= 52.0

c_u_x2240_:
+52.0 x293
+1 x1133
-1 x1803
<= 52.0

c_u_x2241_:
+52.0 x294
+1 x1137
-1 x1805
<= 52.0

c_u_x2242_:
+52.0 x295
+1 x1141
-1 x1807
<= 52.0

c_u_x2243_:
+52.0 x296
+1 x1145
-1 x1809
<= 52.0

c_u_x2244_:
+52.0 x297
+1 x1149
-1 x1811
<= 52.0

c_u_x2245_:
+52.0 x298
+1 x1153
-1 x1813
<= 52.0

c_u_x2246_:
+52.0 x300
+1 x1157
-1 x1791
<= 52.0

c_u_x2247_:
+52.0 x301
+1 x1161
-1 x1793
<= 52.0

c_u_x2248_:
+52.0 x302
+1 x1165
-1 x1795
<= 52.0

c_u_x2249_:
+52.0 x303
+1 x1169
-1 x1797
<= 52.0

c_u_x2250_:
+52.0 x304
+1 x1173
-1 x1799
<= 52.0

c_u_x2251_:
+52.0 x305
+1 x1177
-1 x1801
<= 52.0

c_u_x2252_:
+52.0 x306
+1 x1181
-1 x1803
<= 52.0

c_u_x2253_:
+52.0 x307
+1 x1185
-1 x1805
<= 52.0

c_u_x2254_:
+52.0 x308
+1 x1189
-1 x1807
<= 52.0

c_u_x2255_:
+52.0 x309
+1 x1193
-1 x1809
<= 52.0

c_u_x2256_:
+52.0 x310
+1 x1197
-1 x1811
<= 52.0

c_u_x2257_:
+52.0 x311
+1 x1201
-1 x1813
<= 52.0

c_u_x2258_:
+52.0 x313
+1 x1205
-1 x1791
<= 52.0

c_u_x2259_:
+52.0 x314
+1 x1209
-1 x1793
<= 52.0

c_u_x2260_:
+52.0 x315
+1 x1213
-1 x1795
<= 52.0

c_u_x2261_:
+52.0 x316
+1 x1217
-1 x1797
<= 52.0

c_u_x2262_:
+52.0 x317
+1 x1221
-1 x1799
<= 52.0

c_u_x2263_:
+52.0 x318
+1 x1225
-1 x1801
<= 52.0

c_u_x2264_:
+52.0 x319
+1 x1229
-1 x1803
<= 52.0

c_u_x2265_:
+52.0 x320
+1 x1233
-1 x1805
<= 52.0

c_u_x2266_:
+52.0 x321
+1 x1237
-1 x1807
<= 52.0

c_u_x2267_:
+52.0 x322
+1 x1241
-1 x1809
<= 52.0

c_u_x2268_:
+52.0 x323
+1 x1245
-1 x1811
<= 52.0

c_u_x2269_:
+52.0 x324
+1 x1249
-1 x1813
<= 52.0

c_u_x2270_:
+52.0 x326
+1 x1253
-1 x1791
<= 52.0

c_u_x2271_:
+52.0 x327
+1 x1257
-1 x1793
<= 52.0

c_u_x2272_:
+52.0 x328
+1 x1261
-1 x1795
<= 52.0

c_u_x2273_:
+52.0 x329
+1 x1265
-1 x1797
<= 52.0

c_u_x2274_:
+52.0 x330
+1 x1269
-1 x1799
<= 52.0

c_u_x2275_:
+52.0 x331
+1 x1273
-1 x1801
<= 52.0

c_u_x2276_:
+52.0 x332
+1 x1277
-1 x1803
<= 52.0

c_u_x2277_:
+52.0 x333
+1 x1281
-1 x1805
<= 52.0

c_u_x2278_:
+52.0 x334
+1 x1285
-1 x1807
<= 52.0

c_u_x2279_:
+52.0 x335
+1 x1289
-1 x1809
<= 52.0

c_u_x2280_:
+52.0 x336
+1 x1293
-1 x1811
<= 52.0

c_u_x2281_:
+52.0 x337
+1 x1297
-1 x1813
<= 52.0

c_u_x2282_:
+52.0 x79
+1 x340
-1 x2283
<= 52.0

c_u_x2284_:
+52.0 x80
+1 x344
-1 x2285
<= 52.0

c_u_x2286_:
+52.0 x81
+1 x348
-1 x2287
<= 52.0

c_u_x2288_:
+52.0 x82
+1 x352
-1 x2289
<= 52.0

c_u_x2290_:
+52.0 x83
+1 x356
-1 x2291
<= 52.0

c_u_x2292_:
+52.0 x84
+1 x360
-1 x2293
<= 52.0

c_u_x2294_:
+52.0 x85
+1 x364
-1 x2295
<= 52.0

c_u_x2296_:
+52.0 x86
+1 x368
-1 x2297
<= 52.0

c_u_x2298_:
+52.0 x87
+1 x372
-1 x2299
<= 52.0

c_u_x2300_:
+52.0 x88
+1 x376
-1 x2301
<= 52.0

c_u_x2302_:
+52.0 x89
+1 x380
-1 x2303
<= 52.0

c_u_x2304_:
+52.0 x90
+1 x384
-1 x2305
<= 52.0

c_u_x2306_:
+52.0 x92
+1 x388
-1 x2283
<= 52.0

c_u_x2307_:
+52.0 x93
+1 x392
-1 x2285
<= 52.0

c_u_x2308_:
+52.0 x94
+1 x396
-1 x2287
<= 52.0

c_u_x2309_:
+52.0 x95
+1 x400
-1 x2289
<= 52.0

c_u_x2310_:
+52.0 x96
+1 x404
-1 x2291
<= 52.0

c_u_x2311_:
+52.0 x97
+1 x408
-1 x2293
<= 52.0

c_u_x2312_:
+52.0 x98
+1 x412
-1 x2295
<= 52.0

c_u_x2313_:
+52.0 x99
+1 x416
-1 x2297
<= 52.0

c_u_x2314_:
+52.0 x100
+1 x420
-1 x2299
<= 52.0

c_u_x2315_:
+52.0 x101
+1 x424
-1 x2301
<= 52.0

c_u_x2316_:
+52.0 x102
+1 x428
-1 x2303
<= 52.0

c_u_x2317_:
+52.0 x103
+1 x432
-1 x2305
<= 52.0

c_u_x2318_:
+52.0 x105
+1 x436
-1 x2283
<= 52.0

c_u_x2319_:
+52.0 x106
+1 x440
-1 x2285
<= 52.0

c_u_x2320_:
+52.0 x107
+1 x444
-1 x2287
<= 52.0

c_u_x2321_:
+52.0 x108
+1 x448
-1 x2289
<= 52.0

c_u_x2322_:
+52.0 x109
+1 x452
-1 x2291
<= 52.0

c_u_x2323_:
+52.0 x110
+1 x456
-1 x2293
<= 52.0

c_u_x2324_:
+52.0 x111
+1 x460
-1 x2295
<= 52.0

c_u_x2325_:
+52.0 x112
+1 x464
-1 x2297
<= 52.0

c_u_x2326_:
+52.0 x113
+1 x468
-1 x2299
<= 52.0

c_u_x2327_:
+52.0 x114
+1 x472
-1 x2301
<= 52.0

c_u_x2328_:
+52.0 x115
+1 x476
-1 x2303
<= 52.0

c_u_x2329_:
+52.0 x116
+1 x480
-1 x2305
<= 52.0

c_u_x2330_:
+52.0 x118
+1 x484
-1 x2283
<= 52.0

c_u_x2331_:
+52.0 x119
+1 x488
-1 x2285
<= 52.0

c_u_x2332_:
+52.0 x120
+1 x492
-1 x2287
<= 52.0

c_u_x2333_:
+52.0 x121
+1 x496
-1 x2289
<= 52.0

c_u_x2334_:
+52.0 x122
+1 x500
-1 x2291
<= 52.0

c_u_x2335_:
+52.0 x123
+1 x504
-1 x2293
<= 52.0

c_u_x2336_:
+52.0 x124
+1 x508
-1 x2295
<= 52.0

c_u_x2337_:
+52.0 x125
+1 x512
-1 x2297
<= 52.0

c_u_x2338_:
+52.0 x126
+1 x516
-1 x2299
<= 52.0

c_u_x2339_:
+52.0 x127
+1 x520
-1 x2301
<= 52.0

c_u_x2340_:
+52.0 x128
+1 x524
-1 x2303
<= 52.0

c_u_x2341_:
+52.0 x129
+1 x528
-1 x2305
<= 52.0

c_u_x2342_:
+52.0 x131
+1 x532
-1 x2283
<= 52.0

c_u_x2343_:
+52.0 x132
+1 x536
-1 x2285
<= 52.0

c_u_x2344_:
+52.0 x133
+1 x540
-1 x2287
<= 52.0

c_u_x2345_:
+52.0 x134
+1 x544
-1 x2289
<= 52.0

c_u_x2346_:
+52.0 x135
+1 x548
-1 x2291
<= 52.0

c_u_x2347_:
+52.0 x136
+1 x552
-1 x2293
<= 52.0

c_u_x2348_:
+52.0 x137
+1 x556
-1 x2295
<= 52.0

c_u_x2349_:
+52.0 x138
+1 x560
-1 x2297
<= 52.0

c_u_x2350_:
+52.0 x139
+1 x564
-1 x2299
<= 52.0

c_u_x2351_:
+52.0 x140
+1 x568
-1 x2301
<= 52.0

c_u_x2352_:
+52.0 x141
+1 x572
-1 x2303
<= 52.0

c_u_x2353_:
+52.0 x142
+1 x576
-1 x2305
<= 52.0

c_u_x2354_:
+52.0 x144
+1 x580
-1 x2283
<= 52.0

c_u_x2355_:
+52.0 x145
+1 x584
-1 x2285
<= 52.0

c_u_x2356_:
+52.0 x146
+1 x588
-1 x2287
<= 52.0

c_u_x2357_:
+52.0 x147
+1 x592
-1 x2289
<= 52.0

c_u_x2358_:
+52.0 x148
+1 x596
-1 x2291
<= 52.0

c_u_x2359_:
+52.0 x149
+1 x600
-1 x2293
<= 52.0

c_u_x2360_:
+52.0 x150
+1 x604
-1 x2295
<= 52.0

c_u_x2361_:
+52.0 x151
+1 x608
-1 x2297
<= 52.0

c_u_x2362_:
+52.0 x152
+1 x612
-1 x2299
<= 52.0

c_u_x2363_:
+52.0 x153
+1 x616
-1 x2301
<= 52.0

c_u_x2364_:
+52.0 x154
+1 x620
-1 x2303
<= 52.0

c_u_x2365_:
+52.0 x155
+1 x624
-1 x2305
<= 52.0

c_u_x2366_:
+52.0 x157
+1 x628
-1 x2283
<= 52.0

c_u_x2367_:
+52.0 x158
+1 x632
-1 x2285
<= 52.0

c_u_x2368_:
+52.0 x159
+1 x636
-1 x2287
<= 52.0

c_u_x2369_:
+52.0 x160
+1 x640
-1 x2289
<= 52.0

c_u_x2370_:
+52.0 x161
+1 x644
-1 x2291
<= 52.0

c_u_x2371_:
+52.0 x162
+1 x648
-1 x2293
<= 52.0

c_u_x2372_:
+52.0 x163
+1 x652
-1 x2295
<= 52.0

c_u_x2373_:
+52.0 x164
+1 x656
-1 x2297
<= 52.0

c_u_x2374_:
+52.0 x165
+1 x660
-1 x2299
<= 52.0

c_u_x2375_:
+52.0 x166
+1 x664
-1 x2301
<= 52.0

c_u_x2376_:
+52.0 x167
+1 x668
-1 x2303
<= 52.0

c_u_x2377_:
+52.0 x168
+1 x672
-1 x2305
<= 52.0

c_u_x2378_:
+52.0 x170
+1 x676
-1 x2283
<= 52.0

c_u_x2379_:
+52.0 x171
+1 x680
-1 x2285
<= 52.0

c_u_x2380_:
+52.0 x172
+1 x684
-1 x2287
<= 52.0

c_u_x2381_:
+52.0 x173
+1 x688
-1 x2289
<= 52.0

c_u_x2382_:
+52.0 x174
+1 x692
-1 x2291
<= 52.0

c_u_x2383_:
+52.0 x175
+1 x696
-1 x2293
<= 52.0

c_u_x2384_:
+52.0 x176
+1 x700
-1 x2295
<= 52.0

c_u_x2385_:
+52.0 x177
+1 x704
-1 x2297
<= 52.0

c_u_x2386_:
+52.0 x178
+1 x708
-1 x2299
<= 52.0

c_u_x2387_:
+52.0 x179
+1 x712
-1 x2301
<= 52.0

c_u_x2388_:
+52.0 x180
+1 x716
-1 x2303
<= 52.0

c_u_x2389_:
+52.0 x181
+1 x720
-1 x2305
<= 52.0

c_u_x2390_:
+52.0 x183
+1 x724
-1 x2283
<= 52.0

c_u_x2391_:
+52.0 x184
+1 x728
-1 x2285
<= 52.0

c_u_x2392_:
+52.0 x185
+1 x732
-1 x2287
<= 52.0

c_u_x2393_:
+52.0 x186
+1 x736
-1 x2289
<= 52.0

c_u_x2394_:
+52.0 x187
+1 x740
-1 x2291
<= 52.0

c_u_x2395_:
+52.0 x188
+1 x744
-1 x2293
<= 52.0

c_u_x2396_:
+52.0 x189
+1 x748
-1 x2295
<= 52.0

c_u_x2397_:
+52.0 x190
+1 x752
-1 x2297
<= 52.0

c_u_x2398_:
+52.0 x191
+1 x756
-1 x2299
<= 52.0

c_u_x2399_:
+52.0 x192
+1 x760
-1 x2301
<= 52.0

c_u_x2400_:
+52.0 x193
+1 x764
-1 x2303
<= 52.0

c_u_x2401_:
+52.0 x194
+1 x768
-1 x2305
<= 52.0

c_u_x2402_:
+52.0 x196
+1 x772
-1 x2283
<= 52.0

c_u_x2403_:
+52.0 x197
+1 x776
-1 x2285
<= 52.0

c_u_x2404_:
+52.0 x198
+1 x780
-1 x2287
<= 52.0

c_u_x2405_:
+52.0 x199
+1 x784
-1 x2289
<= 52.0

c_u_x2406_:
+52.0 x200
+1 x788
-1 x2291
<= 52.0

c_u_x2407_:
+52.0 x201
+1 x792
-1 x2293
<= 52.0

c_u_x2408_:
+52.0 x202
+1 x796
-1 x2295
<= 52.0

c_u_x2409_:
+52.0 x203
+1 x800
-1 x2297
<= 52.0

c_u_x2410_:
+52.0 x204
+1 x804
-1 x2299
<= 52.0

c_u_x2411_:
+52.0 x205
+1 x808
-1 x2301
<= 52.0

c_u_x2412_:
+52.0 x206
+1 x812
-1 x2303
<= 52.0

c_u_x2413_:
+52.0 x207
+1 x816
-1 x2305
<= 52.0

c_u_x2414_:
+52.0 x209
+1 x820
-1 x2283
<= 52.0

c_u_x2415_:
+52.0 x210
+1 x824
-1 x2285
<= 52.0

c_u_x2416_:
+52.0 x211
+1 x828
-1 x2287
<= 52.0

c_u_x2417_:
+52.0 x212
+1 x832
-1 x2289
<= 52.0

c_u_x2418_:
+52.0 x213
+1 x836
-1 x2291
<= 52.0

c_u_x2419_:
+52.0 x214
+1 x840
-1 x2293
<= 52.0

c_u_x2420_:
+52.0 x215
+1 x844
-1 x2295
<= 52.0

c_u_x2421_:
+52.0 x216
+1 x848
-1 x2297
<= 52.0

c_u_x2422_:
+52.0 x217
+1 x852
-1 x2299
<= 52.0

c_u_x2423_:
+52.0 x218
+1 x856
-1 x2301
<= 52.0

c_u_x2424_:
+52.0 x219
+1 x860
-1 x2303
<= 52.0

c_u_x2425_:
+52.0 x220
+1 x864
-1 x2305
<= 52.0

c_u_x2426_:
+52.0 x222
+1 x868
-1 x2283
<= 52.0

c_u_x2427_:
+52.0 x223
+1 x872
-1 x2285
<= 52.0

c_u_x2428_:
+52.0 x224
+1 x876
-1 x2287
<= 52.0

c_u_x2429_:
+52.0 x225
+1 x880
-1 x2289
<= 52.0

c_u_x2430_:
+52.0 x226
+1 x884
-1 x2291
<= 52.0

c_u_x2431_:
+52.0 x227
+1 x888
-1 x2293
<= 52.0

c_u_x2432_:
+52.0 x228
+1 x892
-1 x2295
<= 52.0

c_u_x2433_:
+52.0 x229
+1 x896
-1 x2297
<= 52.0

c_u_x2434_:
+52.0 x230
+1 x900
-1 x2299
<= 52.0

c_u_x2435_:
+52.0 x231
+1 x904
-1 x2301
<= 52.0

c_u_x2436_:
+52.0 x232
+1 x908
-1 x2303
<= 52.0

c_u_x2437_:
+52.0 x233
+1 x912
-1 x2305
<= 52.0

c_u_x2438_:
+52.0 x235
+1 x916
-1 x2283
<= 52.0

c_u_x2439_:
+52.0 x236
+1 x920
-1 x2285
<= 52.0

c_u_x2440_:
+52.0 x237
+1 x924
-1 x2287
<= 52.0

c_u_x2441_:
+52.0 x238
+1 x928
-1 x2289
<= 52.0

c_u_x2442_:
+52.0 x239
+1 x932
-1 x2291
<= 52.0

c_u_x2443_:
+52.0 x240
+1 x936
-1 x2293
<= 52.0

c_u_x2444_:
+52.0 x241
+1 x940
-1 x2295
<= 52.0

c_u_x2445_:
+52.0 x242
+1 x944
-1 x2297
<= 52.0

c_u_x2446_:
+52.0 x243
+1 x948
-1 x2299
<= 52.0

c_u_x2447_:
+52.0 x244
+1 x952
-1 x2301
<= 52.0

c_u_x2448_:
+52.0 x245
+1 x956
-1 x2303
<= 52.0

c_u_x2449_:
+52.0 x246
+1 x960
-1 x2305
<= 52.0

c_u_x2450_:
+52.0 x248
+1 x964
-1 x2283
<= 52.0

c_u_x2451_:
+52.0 x249
+1 x968
-1 x2285
<= 52.0

c_u_x2452_:
+52.0 x250
+1 x972
-1 x2287
<= 52.0

c_u_x2453_:
+52.0 x251
+1 x976
-1 x2289
<= 52.0

c_u_x2454_:
+52.0 x252
+1 x980
-1 x2291
<= 52.0

c_u_x2455_:
+52.0 x253
+1 x984
-1 x2293
<= 52.0

c_u_x2456_:
+52.0 x254
+1 x988
-1 x2295
<= 52.0

c_u_x2457_:
+52.0 x255
+1 x992
-1 x2297
<= 52.0

c_u_x2458_:
+52.0 x256
+1 x996
-1 x2299
<= 52.0

c_u_x2459_:
+52.0 x257
+1 x1000
-1 x2301
<= 52.0

c_u_x2460_:
+52.0 x258
+1 x1004
-1 x2303
<= 52.0

c_u_x2461_:
+52.0 x259
+1 x1008
-1 x2305
<= 52.0

c_u_x2462_:
+52.0 x261
+1 x1012
-1 x2283
<= 52.0

c_u_x2463_:
+52.0 x262
+1 x1016
-1 x2285
<= 52.0

c_u_x2464_:
+52.0 x263
+1 x1020
-1 x2287
<= 52.0

c_u_x2465_:
+52.0 x264
+1 x1024
-1 x2289
<= 52.0

c_u_x2466_:
+52.0 x265
+1 x1028
-1 x2291
<= 52.0

c_u_x2467_:
+52.0 x266
+1 x1032
-1 x2293
<= 52.0

c_u_x2468_:
+52.0 x267
+1 x1036
-1 x2295
<= 52.0

c_u_x2469_:
+52.0 x268
+1 x1040
-1 x2297
<= 52.0

c_u_x2470_:
+52.0 x269
+1 x1044
-1 x2299
<= 52.0

c_u_x2471_:
+52.0 x270
+1 x1048
-1 x2301
<= 52.0

c_u_x2472_:
+52.0 x271
+1 x1052
-1 x2303
<= 52.0

c_u_x2473_:
+52.0 x272
+1 x1056
-1 x2305
<= 52.0

c_u_x2474_:
+52.0 x274
+1 x1060
-1 x2283
<= 52.0

c_u_x2475_:
+52.0 x275
+1 x1064
-1 x2285
<= 52.0

c_u_x2476_:
+52.0 x276
+1 x1068
-1 x2287
<= 52.0

c_u_x2477_:
+52.0 x277
+1 x1072
-1 x2289
<= 52.0

c_u_x2478_:
+52.0 x278
+1 x1076
-1 x2291
<= 52.0

c_u_x2479_:
+52.0 x279
+1 x1080
-1 x2293
<= 52.0

c_u_x2480_:
+52.0 x280
+1 x1084
-1 x2295
<= 52.0

c_u_x2481_:
+52.0 x281
+1 x1088
-1 x2297
<= 52.0

c_u_x2482_:
+52.0 x282
+1 x1092
-1 x2299
<= 52.0

c_u_x2483_:
+52.0 x283
+1 x1096
-1 x2301
<= 52.0

c_u_x2484_:
+52.0 x284
+1 x1100
-1 x2303
<= 52.0

c_u_x2485_:
+52.0 x285
+1 x1104
-1 x2305
<= 52.0

c_u_x2486_:
+52.0 x287
+1 x1108
-1 x2283
<= 52.0

c_u_x2487_:
+52.0 x288
+1 x1112
-1 x2285
<= 52.0

c_u_x2488_:
+52.0 x289
+1 x1116
-1 x2287
<= 52.0

c_u_x2489_:
+52.0 x290
+1 x1120
-1 x2289
<= 52.0

c_u_x2490_:
+52.0 x291
+1 x1124
-1 x2291
<= 52.0

c_u_x2491_:
+52.0 x292
+1 x1128
-1 x2293
<= 52.0

c_u_x2492_:
+52.0 x293
+1 x1132
-1 x2295
<= 52.0

c_u_x2493_:
+52.0 x294
+1 x1136
-1 x2297
<= 52.0

c_u_x2494_:
+52.0 x295
+1 x1140
-1 x2299
<= 52.0

c_u_x2495_:
+52.0 x296
+1 x1144
-1 x2301
<= 52.0

c_u_x2496_:
+52.0 x297
+1 x1148
-1 x2303
<= 52.0

c_u_x2497_:
+52.0 x298
+1 x1152
-1 x2305
<= 52.0

c_u_x2498_:
+52.0 x300
+1 x1156
-1 x2283
<= 52.0

c_u_x2499_:
+52.0 x301
+1 x1160
-1 x2285
<= 52.0

c_u_x2500_:
+52.0 x302
+1 x1164
-1 x2287
<= 52.0

c_u_x2501_:
+52.0 x303
+1 x1168
-1 x2289
<= 52.0

c_u_x2502_:
+52.0 x304
+1 x1172
-1 x2291
<= 52.0

c_u_x2503_:
+52.0 x305
+1 x1176
-1 x2293
<= 52.0

c_u_x2504_:
+52.0 x306
+1 x1180
-1 x2295
<= 52.0

c_u_x2505_:
+52.0 x307
+1 x1184
-1 x2297
<= 52.0

c_u_x2506_:
+52.0 x308
+1 x1188
-1 x2299
<= 52.0

c_u_x2507_:
+52.0 x309
+1 x1192
-1 x2301
<= 52.0

c_u_x2508_:
+52.0 x310
+1 x1196
-1 x2303
<= 52.0

c_u_x2509_:
+52.0 x311
+1 x1200
-1 x2305
<= 52.0

c_u_x2510_:
+52.0 x313
+1 x1204
-1 x2283
<= 52.0

c_u_x2511_:
+52.0 x314
+1 x1208
-1 x2285
<= 52.0

c_u_x2512_:
+52.0 x315
+1 x1212
-1 x2287
<= 52.0

c_u_x2513_:
+52.0 x316
+1 x1216
-1 x2289
<= 52.0

c_u_x2514_:
+52.0 x317
+1 x1220
-1 x2291
<= 52.0

c_u_x2515_:
+52.0 x318
+1 x1224
-1 x2293
<= 52.0

c_u_x2516_:
+52.0 x319
+1 x1228
-1 x2295
<= 52.0

c_u_x2517_:
+52.0 x320
+1 x1232
-1 x2297
<= 52.0

c_u_x2518_:
+52.0 x321
+1 x1236
-1 x2299
<= 52.0

c_u_x2519_:
+52.0 x322
+1 x1240
-1 x2301
<= 52.0

c_u_x2520_:
+52.0 x323
+1 x1244
-1 x2303
<= 52.0

c_u_x2521_:
+52.0 x324
+1 x1248
-1 x2305
<= 52.0

c_u_x2522_:
+52.0 x326
+1 x1252
-1 x2283
<= 52.0

c_u_x2523_:
+52.0 x327
+1 x1256
-1 x2285
<= 52.0

c_u_x2524_:
+52.0 x328
+1 x1260
-1 x2287
<= 52.0

c_u_x2525_:
+52.0 x329
+1 x1264
-1 x2289
<= 52.0

c_u_x2526_:
+52.0 x330
+1 x1268
-1 x2291
<= 52.0

c_u_x2527_:
+52.0 x331
+1 x1272
-1 x2293
<= 52.0

c_u_x2528_:
+52.0 x332
+1 x1276
-1 x2295
<= 52.0

c_u_x2529_:
+52.0 x333
+1 x1280
-1 x2297
<= 52.0

c_u_x2530_:
+52.0 x334
+1 x1284
-1 x2299
<= 52.0

c_u_x2531_:
+52.0 x335
+1 x1288
-1 x2301
<= 52.0

c_u_x2532_:
+52.0 x336
+1 x1292
-1 x2303
<= 52.0

c_u_x2533_:
+52.0 x337
+1 x1296
-1 x2305
<= 52.0

c_u_x2534_:
+52.0 x79
-1 x340
+1 x2283
<= 52.0

c_u_x2535_:
+52.0 x80
-1 x344
+1 x2285
<= 52.0

c_u_x2536_:
+52.0 x81
-1 x348
+1 x2287
<= 52.0

c_u_x2537_:
+52.0 x82
-1 x352
+1 x2289
<= 52.0

c_u_x2538_:
+52.0 x83
-1 x356
+1 x2291
<= 52.0

c_u_x2539_:
+52.0 x84
-1 x360
+1 x2293
<= 52.0

c_u_x2540_:
+52.0 x85
-1 x364
+1 x2295
<= 52.0

c_u_x2541_:
+52.0 x86
-1 x368
+1 x2297
<= 52.0

c_u_x2542_:
+52.0 x87
-1 x372
+1 x2299
<= 52.0

c_u_x2543_:
+52.0 x88
-1 x376
+1 x2301
<= 52.0

c_u_x2544_:
+52.0 x89
-1 x380
+1 x2303
<= 52.0

c_u_x2545_:
+52.0 x90
-1 x384
+1 x2305
<= 52.0

c_u_x2546_:
+52.0 x92
-1 x388
+1 x2283
<= 52.0

c_u_x2547_:
+52.0 x93
-1 x392
+1 x2285
<= 52.0

c_u_x2548_:
+52.0 x94
-1 x396
+1 x2287
<= 52.0

c_u_x2549_:
+52.0 x95
-1 x400
+1 x2289
<= 52.0

c_u_x2550_:
+52.0 x96
-1 x404
+1 x2291
<= 52.0

c_u_x2551_:
+52.0 x97
-1 x408
+1 x2293
<= 52.0

c_u_x2552_:
+52.0 x98
-1 x412
+1 x2295
<= 52.0

c_u_x2553_:
+52.0 x99
-1 x416
+1 x2297
<= 52.0

c_u_x2554_:
+52.0 x100
-1 x420
+1 x2299
<= 52.0

c_u_x2555_:
+52.0 x101
-1 x424
+1 x2301
<= 52.0

c_u_x2556_:
+52.0 x102
-1 x428
+1 x2303
<= 52.0

c_u_x2557_:
+52.0 x103
-1 x432
+1 x2305
<= 52.0

c_u_x2558_:
+52.0 x105
-1 x436
+1 x2283
<= 52.0

c_u_x2559_:
+52.0 x106
-1 x440
+1 x2285
<= 52.0

c_u_x2560_:
+52.0 x107
-1 x444
+1 x2287
<= 52.0

c_u_x2561_:
+52.0 x108
-1 x448
+1 x2289
<= 52.0

c_u_x2562_:
+52.0 x109
-1 x452
+1 x2291
<= 52.0

c_u_x2563_:
+52.0 x110
-1 x456
+1 x2293
<= 52.0

c_u_x2564_:
+52.0 x111
-1 x460
+1 x2295
<= 52.0

c_u_x2565_:
+52.0 x112
-1 x464
+1 x2297
<= 52.0

c_u_x2566_:
+52.0 x113
-1 x468
+1 x2299
<= 52.0

c_u_x2567_:
+52.0 x114
-1 x472
+1 x2301
<= 52.0

c_u_x2568_:
+52.0 x115
-1 x476
+1 x2303
<= 52.0

c_u_x2569_:
+52.0 x116
-1 x480
+1 x2305
<= 52.0

c_u_x2570_:
+52.0 x118
-1 x484
+1 x2283
<= 52.0

c_u_x2571_:
+52.0 x119
-1 x488
+1 x2285
<= 52.0

c_u_x2572_:
+52.0 x120
-1 x492
+1 x2287
<= 52.0

c_u_x2573_:
+52.0 x121
-1 x496
+1 x2289
<= 52.0

c_u_x2574_:
+52.0 x122
-1 x500
+1 x2291
<= 52.0

c_u_x2575_:
+52.0 x123
-1 x504
+1 x2293
<= 52.0

c_u_x2576_:
+52.0 x124
-1 x508
+1 x2295
<= 52.0

c_u_x2577_:
+52.0 x125
-1 x512
+1 x2297
<= 52.0

c_u_x2578_:
+52.0 x126
-1 x516
+1 x2299
<= 52.0

c_u_x2579_:
+52.0 x127
-1 x520
+1 x2301
<= 52.0

c_u_x2580_:
+52.0 x128
-1 x524
+1 x2303
<= 52.0

c_u_x2581_:
+52.0 x129
-1 x528
+1 x2305
<= 52.0

c_u_x2582_:
+52.0 x131
-1 x532
+1 x2283
<= 52.0

c_u_x2583_:
+52.0 x132
-1 x536
+1 x2285
<= 52.0

c_u_x2584_:
+52.0 x133
-1 x540
+1 x2287
<= 52.0

c_u_x2585_:
+52.0 x134
-1 x544
+1 x2289
<= 52.0

c_u_x2586_:
+52.0 x135
-1 x548
+1 x2291
<= 52.0

c_u_x2587_:
+52.0 x136
-1 x552
+1 x2293
<= 52.0

c_u_x2588_:
+52.0 x137
-1 x556
+1 x2295
<= 52.0

c_u_x2589_:
+52.0 x138
-1 x560
+1 x2297
<= 52.0

c_u_x2590_:
+52.0 x139
-1 x564
+1 x2299
<= 52.0

c_u_x2591_:
+52.0 x140
-1 x568
+1 x2301
<= 52.0

c_u_x2592_:
+52.0 x141
-1 x572
+1 x2303
<= 52.0

c_u_x2593_:
+52.0 x142
-1 x576
+1 x2305
<= 52.0

c_u_x2594_:
+52.0 x144
-1 x580
+1 x2283
<= 52.0

c_u_x2595_:
+52.0 x145
-1 x584
+1 x2285
<= 52.0

c_u_x2596_:
+52.0 x146
-1 x588
+1 x2287
<= 52.0

c_u_x2597_:
+52.0 x147
-1 x592
+1 x2289
<= 52.0

c_u_x2598_:
+52.0 x148
-1 x596
+1 x2291
<= 52.0

c_u_x2599_:
+52.0 x149
-1 x600
+1 x2293
<= 52.0

c_u_x2600_:
+52.0 x150
-1 x604
+1 x2295
<= 52.0

c_u_x2601_:
+52.0 x151
-1 x608
+1 x2297
<= 52.0

c_u_x2602_:
+52.0 x152
-1 x612
+1 x2299
<= 52.0

c_u_x2603_:
+52.0 x153
-1 x616
+1 x2301
<= 52.0

c_u_x2604_:
+52.0 x154
-1 x620
+1 x2303
<= 52.0

c_u_x2605_:
+52.0 x155
-1 x624
+1 x2305
<= 52.0

c_u_x2606_:
+52.0 x157
-1 x628
+1 x2283
<= 52.0

c_u_x2607_:
+52.0 x158
-1 x632
+1 x2285
<= 52.0

c_u_x2608_:
+52.0 x159
-1 x636
+1 x2287
<= 52.0

c_u_x2609_:
+52.0 x160
-1 x640
+1 x2289
<= 52.0

c_u_x2610_:
+52.0 x161
-1 x644
+1 x2291
<= 52.0

c_u_x2611_:
+52.0 x162
-1 x648
+1 x2293
<= 52.0

c_u_x2612_:
+52.0 x163
-1 x652
+1 x2295
<= 52.0

c_u_x2613_:
+52.0 x164
-1 x656
+1 x2297
<= 52.0

c_u_x2614_:
+52.0 x165
-1 x660
+1 x2299
<= 52.0

c_u_x2615_:
+52.0 x166
-1 x664
+1 x2301
<= 52.0

c_u_x2616_:
+52.0 x167
-1 x668
+1 x2303
<= 52.0

c_u_x2617_:
+52.0 x168
-1 x672
+1 x2305
<= 52.0

c_u_x2618_:
+52.0 x170
-1 x676
+1 x2283
<= 52.0

c_u_x2619_:
+52.0 x171
-1 x680
+1 x2285
<= 52.0

c_u_x2620_:
+52.0 x172
-1 x684
+1 x2287
<= 52.0

c_u_x2621_:
+52.0 x173
-1 x688
+1 x2289
<= 52.0

c_u_x2622_:
+52.0 x174
-1 x692
+1 x2291
<= 52.0

c_u_x2623_:
+52.0 x175
-1 x696
+1 x2293
<= 52.0

c_u_x2624_:
+52.0 x176
-1 x700
+1 x2295
<= 52.0

c_u_x2625_:
+52.0 x177
-1 x704
+1 x2297
<= 52.0

c_u_x2626_:
+52.0 x178
-1 x708
+1 x2299
<= 52.0

c_u_x2627_:
+52.0 x179
-1 x712
+1 x2301
<= 52.0

c_u_x2628_:
+52.0 x180
-1 x716
+1 x2303
<= 52.0

c_u_x2629_:
+52.0 x181
-1 x720
+1 x2305
<= 52.0

c_u_x2630_:
+52.0 x183
-1 x724
+1 x2283
<= 52.0

c_u_x2631_:
+52.0 x184
-1 x728
+1 x2285
<= 52.0

c_u_x2632_:
+52.0 x185
-1 x732
+1 x2287
<= 52.0

c_u_x2633_:
+52.0 x186
-1 x736
+1 x2289
<= 52.0

c_u_x2634_:
+52.0 x187
-1 x740
+1 x2291
<= 52.0

c_u_x2635_:
+52.0 x188
-1 x744
+1 x2293
<= 52.0

c_u_x2636_:
+52.0 x189
-1 x748
+1 x2295
<= 52.0

c_u_x2637_:
+52.0 x190
-1 x752
+1 x2297
<= 52.0

c_u_x2638_:
+52.0 x191
-1 x756
+1 x2299
<= 52.0

c_u_x2639_:
+52.0 x192
-1 x760
+1 x2301
<= 52.0

c_u_x2640_:
+52.0 x193
-1 x764
+1 x2303
<= 52.0

c_u_x2641_:
+52.0 x194
-1 x768
+1 x2305
<= 52.0

c_u_x2642_:
+52.0 x196
-1 x772
+1 x2283
<= 52.0

c_u_x2643_:
+52.0 x197
-1 x776
+1 x2285
<= 52.0

c_u_x2644_:
+52.0 x198
-1 x780
+1 x2287
<= 52.0

c_u_x2645_:
+52.0 x199
-1 x784
+1 x2289
<= 52.0

c_u_x2646_:
+52.0 x200
-1 x788
+1 x2291
<= 52.0

c_u_x2647_:
+52.0 x201
-1 x792
+1 x2293
<= 52.0

c_u_x2648_:
+52.0 x202
-1 x796
+1 x2295
<= 52.0

c_u_x2649_:
+52.0 x203
-1 x800
+1 x2297
<= 52.0

c_u_x2650_:
+52.0 x204
-1 x804
+1 x2299
<= 52.0

c_u_x2651_:
+52.0 x205
-1 x808
+1 x2301
<= 52.0

c_u_x2652_:
+52.0 x206
-1 x812
+1 x2303
<= 52.0

c_u_x2653_:
+52.0 x207
-1 x816
+1 x2305
<= 52.0

c_u_x2654_:
+52.0 x209
-1 x820
+1 x2283
<= 52.0

c_u_x2655_:
+52.0 x210
-1 x824
+1 x2285
<= 52.0

c_u_x2656_:
+52.0 x211
-1 x828
+1 x2287
<= 52.0

c_u_x2657_:
+52.0 x212
-1 x832
+1 x2289
<= 52.0

c_u_x2658_:
+52.0 x213
-1 x836
+1 x2291
<= 52.0

c_u_x2659_:
+52.0 x214
-1 x840
+1 x2293
<= 52.0

c_u_x2660_:
+52.0 x215
-1 x844
+1 x2295
<= 52.0

c_u_x2661_:
+52.0 x216
-1 x848
+1 x2297
<= 52.0

c_u_x2662_:
+52.0 x217
-1 x852
+1 x2299
<= 52.0

c_u_x2663_:
+52.0 x218
-1 x856
+1 x2301
<= 52.0

c_u_x2664_:
+52.0 x219
-1 x860
+1 x2303
<= 52.0

c_u_x2665_:
+52.0 x220
-1 x864
+1 x2305
<= 52.0

c_u_x2666_:
+52.0 x222
-1 x868
+1 x2283
<= 52.0

c_u_x2667_:
+52.0 x223
-1 x872
+1 x2285
<= 52.0

c_u_x2668_:
+52.0 x224
-1 x876
+1 x2287
<= 52.0

c_u_x2669_:
+52.0 x225
-1 x880
+1 x2289
<= 52.0

c_u_x2670_:
+52.0 x226
-1 x884
+1 x2291
<= 52.0

c_u_x2671_:
+52.0 x227
-1 x888
+1 x2293
<= 52.0

c_u_x2672_:
+52.0 x228
-1 x892
+1 x2295
<= 52.0

c_u_x2673_:
+52.0 x229
-1 x896
+1 x2297
<= 52.0

c_u_x2674_:
+52.0 x230
-1 x900
+1 x2299
<= 52.0

c_u_x2675_:
+52.0 x231
-1 x904
+1 x2301
<= 52.0

c_u_x2676_:
+52.0 x232
-1 x908
+1 x2303
<= 52.0

c_u_x2677_:
+52.0 x233
-1 x912
+1 x2305
<= 52.0

c_u_x2678_:
+52.0 x235
-1 x916
+1 x2283
<= 52.0

c_u_x2679_:
+52.0 x236
-1 x920
+1 x2285
<= 52.0

c_u_x2680_:
+52.0 x237
-1 x924
+1 x2287
<= 52.0

c_u_x2681_:
+52.0 x238
-1 x928
+1 x2289
<= 52.0

c_u_x2682_:
+52.0 x239
-1 x932
+1 x2291
<= 52.0

c_u_x2683_:
+52.0 x240
-1 x936
+1 x2293
<= 52.0

c_u_x2684_:
+52.0 x241
-1 x940
+1 x2295
<= 52.0

c_u_x2685_:
+52.0 x242
-1 x944
+1 x2297
<= 52.0

c_u_x2686_:
+52.0 x243
-1 x948
+1 x2299
<= 52.0

c_u_x2687_:
+52.0 x244
-1 x952
+1 x2301
<= 52.0

c_u_x2688_:
+52.0 x245
-1 x956
+1 x2303
<= 52.0

c_u_x2689_:
+52.0 x246
-1 x960
+1 x2305
<= 52.0

c_u_x2690_:
+52.0 x248
-1 x964
+1 x2283
<= 52.0

c_u_x2691_:
+52.0 x249
-1 x968
+1 x2285
<= 52.0

c_u_x2692_:
+52.0 x250
-1 x972
+1 x2287
<= 52.0

c_u_x2693_:
+52.0 x251
-1 x976
+1 x2289
<= 52.0

c_u_x2694_:
+52.0 x252
-1 x980
+1 x2291
<= 52.0

c_u_x2695_:
+52.0 x253
-1 x984
+1 x2293
<= 52.0

c_u_x2696_:
+52.0 x254
-1 x988
+1 x2295
<= 52.0

c_u_x2697_:
+52.0 x255
-1 x992
+1 x2297
<= 52.0

c_u_x2698_:
+52.0 x256
-1 x996
+1 x2299
<= 52.0

c_u_x2699_:
+52.0 x257
-1 x1000
+1 x2301
<= 52.0

c_u_x2700_:
+52.0 x258
-1 x1004
+1 x2303
<= 52.0

c_u_x2701_:
+52.0 x259
-1 x1008
+1 x2305
<= 52.0

c_u_x2702_:
+52.0 x261
-1 x1012
+1 x2283
<= 52.0

c_u_x2703_:
+52.0 x262
-1 x1016
+1 x2285
<= 52.0

c_u_x2704_:
+52.0 x263
-1 x1020
+1 x2287
<= 52.0

c_u_x2705_:
+52.0 x264
-1 x1024
+1 x2289
<= 52.0

c_u_x2706_:
+52.0 x265
-1 x1028
+1 x2291
<= 52.0

c_u_x2707_:
+52.0 x266
-1 x1032
+1 x2293
<= 52.0

c_u_x2708_:
+52.0 x267
-1 x1036
+1 x2295
<= 52.0

c_u_x2709_:
+52.0 x268
-1 x1040
+1 x2297
<= 52.0

c_u_x2710_:
+52.0 x269
-1 x1044
+1 x2299
<= 52.0

c_u_x2711_:
+52.0 x270
-1 x1048
+1 x2301
<= 52.0

c_u_x2712_:
+52.0 x271
-1 x1052
+1 x2303
<= 52.0

c_u_x2713_:
+52.0 x272
-1 x1056
+1 x2305
<= 52.0

c_u_x2714_:
+52.0 x274
-1 x1060
+1 x2283
<= 52.0

c_u_x2715_:
+52.0 x275
-1 x1064
+1 x2285
<= 52.0

c_u_x2716_:
+52.0 x276
-1 x1068
+1 x2287
<= 52.0

c_u_x2717_:
+52.0 x277
-1 x1072
+1 x2289
<= 52.0

c_u_x2718_:
+52.0 x278
-1 x1076
+1 x2291
<= 52.0

c_u_x2719_:
+52.0 x279
-1 x1080
+1 x2293
<= 52.0

c_u_x2720_:
+52.0 x280
-1 x1084
+1 x2295
<= 52.0

c_u_x2721_:
+52.0 x281
-1 x1088
+1 x2297
<= 52.0

c_u_x2722_:
+52.0 x282
-1 x1092
+1 x2299
<= 52.0

c_u_x2723_:
+52.0 x283
-1 x1096
+1 x2301
<= 52.0

c_u_x2724_:
+52.0 x284
-1 x1100
+1 x2303
<= 52.0

c_u_x2725_:
+52.0 x285
-1 x1104
+1 x2305
<= 52.0

c_u_x2726_:
+52.0 x287
-1 x1108
+1 x2283
<= 52.0

c_u_x2727_:
+52.0 x288
-1 x1112
+1 x2285
<= 52.0

c_u_x2728_:
+52.0 x289
-1 x1116
+1 x2287
<= 52.0

c_u_x2729_:
+52.0 x290
-1 x1120
+1 x2289
<= 52.0

c_u_x2730_:
+52.0 x291
-1 x1124
+1 x2291
<= 52.0

c_u_x2731_:
+52.0 x292
-1 x1128
+1 x2293
<= 52.0

c_u_x2732_:
+52.0 x293
-1 x1132
+1 x2295
<= 52.0

c_u_x2733_:
+52.0 x294
-1 x1136
+1 x2297
<= 52.0

c_u_x2734_:
+52.0 x295
-1 x1140
+1 x2299
<= 52.0

c_u_x2735_:
+52.0 x296
-1 x1144
+1 x2301
<= 52.0

c_u_x2736_:
+52.0 x297
-1 x1148
+1 x2303
<= 52.0

c_u_x2737_:
+52.0 x298
-1 x1152
+1 x2305
<= 52.0

c_u_x2738_:
+52.0 x300
-1 x1156
+1 x2283
<= 52.0

c_u_x2739_:
+52.0 x301
-1 x1160
+1 x2285
<= 52.0

c_u_x2740_:
+52.0 x302
-1 x1164
+1 x2287
<= 52.0

c_u_x2741_:
+52.0 x303
-1 x1168
+1 x2289
<= 52.0

c_u_x2742_:
+52.0 x304
-1 x1172
+1 x2291
<= 52.0

c_u_x2743_:
+52.0 x305
-1 x1176
+1 x2293
<= 52.0

c_u_x2744_:
+52.0 x306
-1 x1180
+1 x2295
<= 52.0

c_u_x2745_:
+52.0 x307
-1 x1184
+1 x2297
<= 52.0

c_u_x2746_:
+52.0 x308
-1 x1188
+1 x2299
<= 52.0

c_u_x2747_:
+52.0 x309
-1 x1192
+1 x2301
<= 52.0

c_u_x2748_:
+52.0 x310
-1 x1196
+1 x2303
<= 52.0

c_u_x2749_:
+52.0 x311
-1 x1200
+1 x2305
<= 52.0

c_u_x2750_:
+52.0 x313
-1 x1204
+1 x2283
<= 52.0

c_u_x2751_:
+52.0 x314
-1 x1208
+1 x2285
<= 52.0

c_u_x2752_:
+52.0 x315
-1 x1212
+1 x2287
<= 52.0

c_u_x2753_:
+52.0 x316
-1 x1216
+1 x2289
<= 52.0

c_u_x2754_:
+52.0 x317
-1 x1220
+1 x2291
<= 52.0

c_u_x2755_:
+52.0 x318
-1 x1224
+1 x2293
<= 52.0

c_u_x2756_:
+52.0 x319
-1 x1228
+1 x2295
<= 52.0

c_u_x2757_:
+52.0 x320
-1 x1232
+1 x2297
<= 52.0

c_u_x2758_:
+52.0 x321
-1 x1236
+1 x2299
<= 52.0

c_u_x2759_:
+52.0 x322
-1 x1240
+1 x2301
<= 52.0

c_u_x2760_:
+52.0 x323
-1 x1244
+1 x2303
<= 52.0

c_u_x2761_:
+52.0 x324
-1 x1248
+1 x2305
<= 52.0

c_u_x2762_:
+52.0 x326
-1 x1252
+1 x2283
<= 52.0

c_u_x2763_:
+52.0 x327
-1 x1256
+1 x2285
<= 52.0

c_u_x2764_:
+52.0 x328
-1 x1260
+1 x2287
<= 52.0

c_u_x2765_:
+52.0 x329
-1 x1264
+1 x2289
<= 52.0

c_u_x2766_:
+52.0 x330
-1 x1268
+1 x2291
<= 52.0

c_u_x2767_:
+52.0 x331
-1 x1272
+1 x2293
<= 52.0

c_u_x2768_:
+52.0 x332
-1 x1276
+1 x2295
<= 52.0

c_u_x2769_:
+52.0 x333
-1 x1280
+1 x2297
<= 52.0

c_u_x2770_:
+52.0 x334
-1 x1284
+1 x2299
<= 52.0

c_u_x2771_:
+52.0 x335
-1 x1288
+1 x2301
<= 52.0

c_u_x2772_:
+52.0 x336
-1 x1292
+1 x2303
<= 52.0

c_u_x2773_:
+52.0 x337
-1 x1296
+1 x2305
<= 52.0

c_u_x2774_:
+1 x1791
-1 x2283
<= 0

c_u_x2775_:
+1 x1793
-1 x2285
<= 0

c_u_x2776_:
+1 x1795
-1 x2287
<= 0

c_u_x2777_:
+1 x1797
-1 x2289
<= 0

c_u_x2778_:
+1 x1799
-1 x2291
<= 0

c_u_x2779_:
+1 x1801
-1 x2293
<= 0

c_u_x2780_:
+1 x1803
-1 x2295
<= 0

c_u_x2781_:
+1 x1805
-1 x2297
<= 0

c_u_x2782_:
+1 x1807
-1 x2299
<= 0

c_u_x2783_:
+1 x1809
-1 x2301
<= 0

c_u_x2784_:
+1 x1811
-1 x2303
<= 0

c_u_x2785_:
+1 x1813
-1 x2305
<= 0

c_u_x2786_:
+1 x2287
-1 x2787
<= 52

c_u_x2788_:
+1 x2293
-1 x2789
<= 70

c_u_x2790_:
+1 x2299
-1 x2791
<= 61

c_u_x2792_:
+1 x2305
-1 x2793
<= 62

c_e_x2794_:
+1 x74
-1 x2787
= 0

c_e_x2795_:
+1 x75
-1 x2789
= 0

c_e_x2796_:
+1 x76
-1 x2791
= 0

c_e_x2797_:
+1 x77
-1 x2793
= 0

c_u_x2798_:
+1 x74
-52.0 x2799
<= 0

c_u_x2800_:
+1 x75
-52.0 x2801
<= 0

c_u_x2802_:
+1 x76
-52.0 x2803
<= 0

c_u_x2804_:
+1 x77
-52.0 x2805
<= 0

c_e_x2806_:
-1 x341
-1 x345
-1 x349
-1 x353
-1 x357
-1 x361
-1 x365
-1 x369
-1 x373
-1 x377
-1 x381
-1 x385
+1 x2807
= 0

c_e_x2808_:
-1 x389
-1 x393
-1 x397
-1 x401
-1 x405
-1 x409
-1 x413
-1 x417
-1 x421
-1 x425
-1 x429
-1 x433
+1 x2809
= 0

c_e_x2810_:
-1 x437
-1 x441
-1 x445
-1 x449
-1 x453
-1 x457
-1 x461
-1 x465
-1 x469
-1 x473
-1 x477
-1 x481
+1 x2811
= 0

c_e_x2812_:
-1 x485
-1 x489
-1 x493
-1 x497
-1 x501
-1 x505
-1 x509
-1 x513
-1 x517
-1 x521
-1 x525
-1 x529
+1 x2813
= 0

c_e_x2814_:
-1 x533
-1 x537
-1 x541
-1 x545
-1 x549
-1 x553
-1 x557
-1 x561
-1 x565
-1 x569
-1 x573
-1 x577
+1 x2815
= 0

c_e_x2816_:
-1 x581
-1 x585
-1 x589
-1 x593
-1 x597
-1 x601
-1 x605
-1 x609
-1 x613
-1 x617
-1 x621
-1 x625
+1 x2817
= 0

c_e_x2818_:
-1 x629
-1 x633
-1 x637
-1 x641
-1 x645
-1 x649
-1 x653
-1 x657
-1 x661
-1 x665
-1 x669
-1 x673
+1 x2819
= 0

c_e_x2820_:
-1 x677
-1 x681
-1 x685
-1 x689
-1 x693
-1 x697
-1 x701
-1 x705
-1 x709
-1 x713
-1 x717
-1 x721
+1 x2821
= 0

c_e_x2822_:
-1 x725
-1 x729
-1 x733
-1 x737
-1 x741
-1 x745
-1 x749
-1 x753
-1 x757
-1 x761
-1 x765
-1 x769
+1 x2823
= 0

c_e_x2824_:
-1 x773
-1 x777
-1 x781
-1 x785
-1 x789
-1 x793
-1 x797
-1 x801
-1 x805
-1 x809
-1 x813
-1 x817
+1 x2825
= 0

c_e_x2826_:
-1 x821
-1 x825
-1 x829
-1 x833
-1 x837
-1 x841
-1 x845
-1 x849
-1 x853
-1 x857
-1 x861
-1 x865
+1 x2827
= 0

c_e_x2828_:
-1 x869
-1 x873
-1 x877
-1 x881
-1 x885
-1 x889
-1 x893
-1 x897
-1 x901
-1 x905
-1 x909
-1 x913
+1 x2829
= 0

c_e_x2830_:
-1 x917
-1 x921
-1 x925
-1 x929
-1 x933
-1 x937
-1 x941
-1 x945
-1 x949
-1 x953
-1 x957
-1 x961
+1 x2831
= 0

c_e_x2832_:
-1 x965
-1 x969
-1 x973
-1 x977
-1 x981
-1 x985
-1 x989
-1 x993
-1 x997
-1 x1001
-1 x1005
-1 x1009
+1 x2833
= 0

c_e_x2834_:
-1 x1013
-1 x1017
-1 x1021
-1 x1025
-1 x1029
-1 x1033
-1 x1037
-1 x1041
-1 x1045
-1 x1049
-1 x1053
-1 x1057
+1 x2835
= 0

c_e_x2836_:
-1 x1061
-1 x1065
-1 x1069
-1 x1073
-1 x1077
-1 x1081
-1 x1085
-1 x1089
-1 x1093
-1 x1097
-1 x1101
-1 x1105
+1 x2837
= 0

c_e_x2838_:
-1 x1109
-1 x1113
-1 x1117
-1 x1121
-1 x1125
-1 x1129
-1 x1133
-1 x1137
-1 x1141
-1 x1145
-1 x1149
-1 x1153
+1 x2839
= 0

c_e_x2840_:
-1 x1157
-1 x1161
-1 x1165
-1 x1169
-1 x1173
-1 x1177
-1 x1181
-1 x1185
-1 x1189
-1 x1193
-1 x1197
-1 x1201
+1 x2841
= 0

c_e_x2842_:
-1 x1205
-1 x1209
-1 x1213
-1 x1217
-1 x1221
-1 x1225
-1 x1229
-1 x1233
-1 x1237
-1 x1241
-1 x1245
-1 x1249
+1 x2843
= 0

c_e_x2844_:
-1 x1253
-1 x1257
-1 x1261
-1 x1265
-1 x1269
-1 x1273
-1 x1277
-1 x1281
-1 x1285
-1 x1289
-1 x1293
-1 x1297
+1 x2845
= 0

c_e_x2846_:
-1 x340
-1 x344
-1 x348
-1 x352
-1 x356
-1 x360
-1 x364
-1 x368
-1 x372
-1 x376
-1 x380
-1 x384
+1 x2847
= 0

c_e_x2848_:
-1 x388
-1 x392
-1 x396
-1 x400
-1 x404
-1 x408
-1 x412
-1 x416
-1 x420
-1 x424
-1 x428
-1 x432
+1 x2849
= 0

c_e_x2850_:
-1 x436
-1 x440
-1 x444
-1 x448
-1 x452
-1 x456
-1 x460
-1 x464
-1 x468
-1 x472
-1 x476
-1 x480
+1 x2851
= 0

c_e_x2852_:
-1 x484
-1 x488
-1 x492
-1 x496
-1 x500
-1 x504
-1 x508
-1 x512
-1 x516
-1 x520
-1 x524
-1 x528
+1 x2853
= 0

c_e_x2854_:
-1 x532
-1 x536
-1 x540
-1 x544
-1 x548
-1 x552
-1 x556
-1 x560
-1 x564
-1 x568
-1 x572
-1 x576
+1 x2855
= 0

c_e_x2856_:
-1 x580
-1 x584
-1 x588
-1 x592
-1 x596
-1 x600
-1 x604
-1 x608
-1 x612
-1 x616
-1 x620
-1 x624
+1 x2857
= 0

c_e_x2858_:
-1 x628
-1 x632
-1 x636
-1 x640
-1 x644
-1 x648
-1 x652
-1 x656
-1 x660
-1 x664
-1 x668
-1 x672
+1 x2859
= 0

c_e_x2860_:
-1 x676
-1 x680
-1 x684
-1 x688
-1 x692
-1 x696
-1 x700
-1 x704
-1 x708
-1 x712
-1 x716
-1 x720
+1 x2861
= 0

c_e_x2862_:
-1 x724
-1 x728
-1 x732
-1 x736
-1 x740
-1 x744
-1 x748
-1 x752
-1 x756
-1 x760
-1 x764
-1 x768
+1 x2863
= 0

c_e_x2864_:
-1 x772
-1 x776
-1 x780
-1 x784
-1 x788
-1 x792
-1 x796
-1 x800
-1 x804
-1 x808
-1 x812
-1 x816
+1 x2865
= 0

c_e_x2866_:
-1 x820
-1 x824
-1 x828
-1 x832
-1 x836
-1 x840
-1 x844
-1 x848
-1 x852
-1 x856
-1 x860
-1 x864
+1 x2867
= 0

c_e_x2868_:
-1 x868
-1 x872
-1 x876
-1 x880
-1 x884
-1 x888
-1 x892
-1 x896
-1 x900
-1 x904
-1 x908
-1 x912
+1 x2869
= 0

c_e_x2870_:
-1 x916
-1 x920
-1 x924
-1 x928
-1 x932
-1 x936
-1 x940
-1 x944
-1 x948
-1 x952
-1 x956
-1 x960
+1 x2871
= 0

c_e_x2872_:
-1 x964
-1 x968
-1 x972
-1 x976
-1 x980
-1 x984
-1 x988
-1 x992
-1 x996
-1 x1000
-1 x1004
-1 x1008
+1 x2873
= 0

c_e_x2874_:
-1 x1012
-1 x1016
-1 x1020
-1 x1024
-1 x1028
-1 x1032
-1 x1036
-1 x1040
-1 x1044
-1 x1048
-1 x1052
-1 x1056
+1 x2875
= 0

c_e_x2876_:
-1 x1060
-1 x1064
-1 x1068
-1 x1072
-1 x1076
-1 x1080
-1 x1084
-1 x1088
-1 x1092
-1 x1096
-1 x1100
-1 x1104
+1 x2877
= 0

c_e_x2878_:
-1 x1108
-1 x1112
-1 x1116
-1 x1120
-1 x1124
-1 x1128
-1 x1132
-1 x1136
-1 x1140
-1 x1144
-1 x1148
-1 x1152
+1 x2879
= 0

c_e_x2880_:
-1 x1156
-1 x1160
-1 x1164
-1 x1168
-1 x1172
-1 x1176
-1 x1180
-1 x1184
-1 x1188
-1 x1192
-1 x1196
-1 x1200
+1 x2881
= 0

c_e_x2882_:
-1 x1204
-1 x1208
-1 x1212
-1 x1216
-1 x1220
-1 x1224
-1 x1228
-1 x1232
-1 x1236
-1 x1240
-1 x1244
-1 x1248
+1 x2883
= 0

c_e_x2884_:
-1 x1252
-1 x1256
-1 x1260
-1 x1264
-1 x1268
-1 x1272
-1 x1276
-1 x1280
-1 x1284
-1 x1288
-1 x1292
-1 x1296
+1 x2885
= 0

c_u_x2886_:
-1 x2817
+1 x2847
<= 0

c_u_x2887_:
-1 x2827
+1 x2857
<= 0

c_u_x2888_:
-1 x2837
+1 x2867
<= 0

c_u_x2889_:
-1 x2819
+1 x2849
<= 0

c_u_x2890_:
-1 x2829
+1 x2859
<= 0

c_u_x2891_:
-1 x2839
+1 x2869
<= 0

c_u_x2892_:
-1 x2821
+1 x2851
<= 0

c_u_x2893_:
-1 x2831
+1 x2861
<= 0

c_u_x2894_:
-1 x2841
+1 x2871
<= 0

c_u_x2895_:
-1 x2823
+1 x2853
<= 0

c_u_x2896_:
-1 x2833
+1 x2863
<= 0

c_u_x2897_:
-1 x2843
+1 x2873
<= 0

c_u_x2898_:
-1 x2825
+1 x2855
<= 0

c_u_x2899_:
-1 x2835
+1 x2865
<= 0

c_u_x2900_:
-1 x2845
+1 x2875
<= 0

c_u_x2901_:
-1 x1793
+1 x2283
<= 0

c_u_x2902_:
-1 x1795
+1 x2285
<= 0

c_u_x2903_:
-1 x1799
+1 x2289
<= 0

c_u_x2904_:
-1 x1801
+1 x2291
<= 0

c_u_x2905_:
-1 x1805
+1 x2295
<= 0

c_u_x2906_:
-1 x1807
+1 x2297
<= 0

c_u_x2907_:
-1 x1811
+1 x2301
<= 0

c_u_x2908_:
-1 x1813
+1 x2303
<= 0

c_e_x2909_:
-1 x79
-1 x80
-1 x81
-1 x82
-1 x83
-1 x84
-1 x85
-1 x86
-1 x87
-1 x88
-1 x89
-1 x90
+1 x144
+1 x145
+1 x146
+1 x147
+1 x148
+1 x149
+1 x150
+1 x151
+1 x152
+1 x153
+1 x154
+1 x155
= 0

c_e_x2910_:
-1 x92
-1 x93
-1 x94
-1 x95
-1 x96
-1 x97
-1 x98
-1 x99
-1 x100
-1 x101
-1 x102
-1 x103
+1 x157
+1 x158
+1 x159
+1 x160
+1 x161
+1 x162
+1 x163
+1 x164
+1 x165
+1 x166
+1 x167
+1 x168
= 0

c_e_x2911_:
-1 x105
-1 x106
-1 x107
-1 x108
-1 x109
-1 x110
-1 x111
-1 x112
-1 x113
-1 x114
-1 x115
-1 x116
+1 x170
+1 x171
+1 x172
+1 x173
+1 x174
+1 x175
+1 x176
+1 x177
+1 x178
+1 x179
+1 x180
+1 x181
= 0

c_e_x2912_:
-1 x118
-1 x119
-1 x120
-1 x121
-1 x122
-1 x123
-1 x124
-1 x125
-1 x126
-1 x127
-1 x128
-1 x129
+1 x183
+1 x184
+1 x185
+1 x186
+1 x187
+1 x188
+1 x189
+1 x190
+1 x191
+1 x192
+1 x193
+1 x194
= 0

c_e_x2913_:
-1 x131
-1 x132
-1 x133
-1 x134
-1 x135
-1 x136
-1 x137
-1 x138
-1 x139
-1 x140
-1 x141
-1 x142
+1 x196
+1 x197
+1 x198
+1 x199
+1 x200
+1 x201
+1 x202
+1 x203
+1 x204
+1 x205
+1 x206
+1 x207
= 0

c_e_x2914_:
-1 x144
-1 x145
-1 x146
-1 x147
-1 x148
-1 x149
-1 x150
-1 x151
-1 x152
-1 x153
-1 x154
-1 x155
+1 x209
+1 x210
+1 x211
+1 x212
+1 x213
+1 x214
+1 x215
+1 x216
+1 x217
+1 x218
+1 x219
+1 x220
= 0

c_e_x2915_:
-1 x157
-1 x158
-1 x159
-1 x160
-1 x161
-1 x162
-1 x163
-1 x164
-1 x165
-1 x166
-1 x167
-1 x168
+1 x222
+1 x223
+1 x224
+1 x225
+1 x226
+1 x227
+1 x228
+1 x229
+1 x230
+1 x231
+1 x232
+1 x233
= 0

c_e_x2916_:
-1 x170
-1 x171
-1 x172
-1 x173
-1 x174
-1 x175
-1 x176
-1 x177
-1 x178
-1 x179
-1 x180
-1 x181
+1 x235
+1 x236
+1 x237
+1 x238
+1 x239
+1 x240
+1 x241
+1 x242
+1 x243
+1 x244
+1 x245
+1 x246
= 0

c_e_x2917_:
-1 x183
-1 x184
-1 x185
-1 x186
-1 x187
-1 x188
-1 x189
-1 x190
-1 x191
-1 x192
-1 x193
-1 x194
+1 x248
+1 x249
+1 x250
+1 x251
+1 x252
+1 x253
+1 x254
+1 x255
+1 x256
+1 x257
+1 x258
+1 x259
= 0

c_e_x2918_:
-1 x196
-1 x197
-1 x198
-1 x199
-1 x200
-1 x201
-1 x202
-1 x203
-1 x204
-1 x205
-1 x206
-1 x207
+1 x261
+1 x262
+1 x263
+1 x264
+1 x265
+1 x266
+1 x267
+1 x268
+1 x269
+1 x270
+1 x271
+1 x272
= 0

c_e_x2919_:
-1 x209
-1 x210
-1 x211
-1 x212
-1 x213
-1 x214
-1 x215
-1 x216
-1 x217
-1 x218
-1 x219
-1 x220
+1 x274
+1 x275
+1 x276
+1 x277
+1 x278
+1 x279
+1 x280
+1 x281
+1 x282
+1 x283
+1 x284
+1 x285
= 0

c_e_x2920_:
-1 x222
-1 x223
-1 x224
-1 x225
-1 x226
-1 x227
-1 x228
-1 x229
-1 x230
-1 x231
-1 x232
-1 x233
+1 x287
+1 x288
+1 x289
+1 x290
+1 x291
+1 x292
+1 x293
+1 x294
+1 x295
+1 x296
+1 x297
+1 x298
= 0

c_e_x2921_:
-1 x235
-1 x236
-1 x237
-1 x238
-1 x239
-1 x240
-1 x241
-1 x242
-1 x243
-1 x244
-1 x245
-1 x246
+1 x300
+1 x301
+1 x302
+1 x303
+1 x304
+1 x305
+1 x306
+1 x307
+1 x308
+1 x309
+1 x310
+1 x311
= 0

c_e_x2922_:
-1 x248
-1 x249
-1 x250
-1 x251
-1 x252
-1 x253
-1 x254
-1 x255
-1 x256
-1 x257
-1 x258
-1 x259
+1 x313
+1 x314
+1 x315
+1 x316
+1 x317
+1 x318
+1 x319
+1 x320
+1 x321
+1 x322
+1 x323
+1 x324
= 0

c_e_x2923_:
-1 x261
-1 x262
-1 x263
-1 x264
-1 x265
-1 x266
-1 x267
-1 x268
-1 x269
-1 x270
-1 x271
-1 x272
+1 x326
+1 x327
+1 x328
+1 x329
+1 x330
+1 x331
+1 x332
+1 x333
+1 x334
+1 x335
+1 x336
+1 x337
= 0

c_e_x2924_:
+1 x79
+1 x92
+1 x105
+1 x118
+1 x131
+1 x144
+1 x157
+1 x170
+1 x183
+1 x196
+1 x209
+1 x222
+1 x235
+1 x248
+1 x261
+1 x274
+1 x287
+1 x300
+1 x313
+1 x326
= 1

c_e_x2925_:
+1 x80
+1 x93
+1 x106
+1 x119
+1 x132
+1 x145
+1 x158
+1 x171
+1 x184
+1 x197
+1 x210
+1 x223
+1 x236
+1 x249
+1 x262
+1 x275
+1 x288
+1 x301
+1 x314
+1 x327
= 1

c_e_x2926_:
+1 x81
+1 x94
+1 x107
+1 x120
+1 x133
+1 x146
+1 x159
+1 x172
+1 x185
+1 x198
+1 x211
+1 x224
+1 x237
+1 x250
+1 x263
+1 x276
+1 x289
+1 x302
+1 x315
+1 x328
= 1

c_e_x2927_:
+1 x82
+1 x95
+1 x108
+1 x121
+1 x134
+1 x147
+1 x160
+1 x173
+1 x186
+1 x199
+1 x212
+1 x225
+1 x238
+1 x251
+1 x264
+1 x277
+1 x290
+1 x303
+1 x316
+1 x329
= 1

c_e_x2928_:
+1 x83
+1 x96
+1 x109
+1 x122
+1 x135
+1 x148
+1 x161
+1 x174
+1 x187
+1 x200
+1 x213
+1 x226
+1 x239
+1 x252
+1 x265
+1 x278
+1 x291
+1 x304
+1 x317
+1 x330
= 1

c_e_x2929_:
+1 x84
+1 x97
+1 x110
+1 x123
+1 x136
+1 x149
+1 x162
+1 x175
+1 x188
+1 x201
+1 x214
+1 x227
+1 x240
+1 x253
+1 x266
+1 x279
+1 x292
+1 x305
+1 x318
+1 x331
= 1

c_e_x2930_:
+1 x85
+1 x98
+1 x111
+1 x124
+1 x137
+1 x150
+1 x163
+1 x176
+1 x189
+1 x202
+1 x215
+1 x228
+1 x241
+1 x254
+1 x267
+1 x280
+1 x293
+1 x306
+1 x319
+1 x332
= 1

c_e_x2931_:
+1 x86
+1 x99
+1 x112
+1 x125
+1 x138
+1 x151
+1 x164
+1 x177
+1 x190
+1 x203
+1 x216
+1 x229
+1 x242
+1 x255
+1 x268
+1 x281
+1 x294
+1 x307
+1 x320
+1 x333
= 1

c_e_x2932_:
+1 x87
+1 x100
+1 x113
+1 x126
+1 x139
+1 x152
+1 x165
+1 x178
+1 x191
+1 x204
+1 x217
+1 x230
+1 x243
+1 x256
+1 x269
+1 x282
+1 x295
+1 x308
+1 x321
+1 x334
= 1

c_e_x2933_:
+1 x88
+1 x101
+1 x114
+1 x127
+1 x140
+1 x153
+1 x166
+1 x179
+1 x192
+1 x205
+1 x218
+1 x231
+1 x244
+1 x257
+1 x270
+1 x283
+1 x296
+1 x309
+1 x322
+1 x335
= 1

c_e_x2934_:
+1 x89
+1 x102
+1 x115
+1 x128
+1 x141
+1 x154
+1 x167
+1 x180
+1 x193
+1 x206
+1 x219
+1 x232
+1 x245
+1 x258
+1 x271
+1 x284
+1 x297
+1 x310
+1 x323
+1 x336
= 1

c_e_x2935_:
+1 x90
+1 x103
+1 x116
+1 x129
+1 x142
+1 x155
+1 x168
+1 x181
+1 x194
+1 x207
+1 x220
+1 x233
+1 x246
+1 x259
+1 x272
+1 x285
+1 x298
+1 x311
+1 x324
+1 x337
= 1

c_e_x2936_:
-3 x79
+1 x340
-1 x341
= 0

c_e_x2937_:
-46 x80
+1 x344
-1 x345
= 0

c_e_x2938_:
-3 x81
+1 x348
-1 x349
= 0

c_e_x2939_:
-3 x82
+1 x352
-1 x353
= 0

c_e_x2940_:
-26 x83
+1 x356
-1 x357
= 0

c_e_x2941_:
-3 x84
+1 x360
-1 x361
= 0

c_e_x2942_:
-3 x85
+1 x364
-1 x365
= 0

c_e_x2943_:
-37 x86
+1 x368
-1 x369
= 0

c_e_x2944_:
-3 x87
+1 x372
-1 x373
= 0

c_e_x2945_:
-3 x88
+1 x376
-1 x377
= 0

c_e_x2946_:
-11 x89
+1 x380
-1 x381
= 0

c_e_x2947_:
-3 x90
+1 x384
-1 x385
= 0

c_e_x2948_:
-3 x92
+1 x388
-1 x389
= 0

c_e_x2949_:
-46 x93
+1 x392
-1 x393
= 0

c_e_x2950_:
-3 x94
+1 x396
-1 x397
= 0

c_e_x2951_:
-3 x95
+1 x400
-1 x401
= 0

c_e_x2952_:
-26 x96
+1 x404
-1 x405
= 0

c_e_x2953_:
-3 x97
+1 x408
-1 x409
= 0

c_e_x2954_:
-3 x98
+1 x412
-1 x413
= 0

c_e_x2955_:
-37 x99
+1 x416
-1 x417
= 0

c_e_x2956_:
-3 x100
+1 x420
-1 x421
= 0

c_e_x2957_:
-3 x101
+1 x424
-1 x425
= 0

c_e_x2958_:
-11 x102
+1 x428
-1 x429
= 0

c_e_x2959_:
-3 x103
+1 x432
-1 x433
= 0

c_e_x2960_:
-3 x105
+1 x436
-1 x437
= 0

c_e_x2961_:
-46 x106
+1 x440
-1 x441
= 0

c_e_x2962_:
-3 x107
+1 x444
-1 x445
= 0

c_e_x2963_:
-3 x108
+1 x448
-1 x449
= 0

c_e_x2964_:
-26 x109
+1 x452
-1 x453
= 0

c_e_x2965_:
-3 x110
+1 x456
-1 x457
= 0

c_e_x2966_:
-3 x111
+1 x460
-1 x461
= 0

c_e_x2967_:
-37 x112
+1 x464
-1 x465
= 0

c_e_x2968_:
-3 x113
+1 x468
-1 x469
= 0

c_e_x2969_:
-3 x114
+1 x472
-1 x473
= 0

c_e_x2970_:
-11 x115
+1 x476
-1 x477
= 0

c_e_x2971_:
-3 x116
+1 x480
-1 x481
= 0

c_e_x2972_:
-3 x118
+1 x484
-1 x485
= 0

c_e_x2973_:
-46 x119
+1 x488
-1 x489
= 0

c_e_x2974_:
-3 x120
+1 x492
-1 x493
= 0

c_e_x2975_:
-3 x121
+1 x496
-1 x497
= 0

c_e_x2976_:
-26 x122
+1 x500
-1 x501
= 0

c_e_x2977_:
-3 x123
+1 x504
-1 x505
= 0

c_e_x2978_:
-3 x124
+1 x508
-1 x509
= 0

c_e_x2979_:
-37 x125
+1 x512
-1 x513
= 0

c_e_x2980_:
-3 x126
+1 x516
-1 x517
= 0

c_e_x2981_:
-3 x127
+1 x520
-1 x521
= 0

c_e_x2982_:
-11 x128
+1 x524
-1 x525
= 0

c_e_x2983_:
-3 x129
+1 x528
-1 x529
= 0

c_e_x2984_:
-3 x131
+1 x532
-1 x533
= 0

c_e_x2985_:
-46 x132
+1 x536
-1 x537
= 0

c_e_x2986_:
-3 x133
+1 x540
-1 x541
= 0

c_e_x2987_:
-3 x134
+1 x544
-1 x545
= 0

c_e_x2988_:
-26 x135
+1 x548
-1 x549
= 0

c_e_x2989_:
-3 x136
+1 x552
-1 x553
= 0

c_e_x2990_:
-3 x137
+1 x556
-1 x557
= 0

c_e_x2991_:
-37 x138
+1 x560
-1 x561
= 0

c_e_x2992_:
-3 x139
+1 x564
-1 x565
= 0

c_e_x2993_:
-3 x140
+1 x568
-1 x569
= 0

c_e_x2994_:
-11 x141
+1 x572
-1 x573
= 0

c_e_x2995_:
-3 x142
+1 x576
-1 x577
= 0

c_e_x2996_:
-3 x144
+1 x580
-1 x581
= 0

c_e_x2997_:
-46 x145
+1 x584
-1 x585
= 0

c_e_x2998_:
-3 x146
+1 x588
-1 x589
= 0

c_e_x2999_:
-3 x147
+1 x592
-1 x593
= 0

c_e_x3000_:
-26 x148
+1 x596
-1 x597
= 0

c_e_x3001_:
-3 x149
+1 x600
-1 x601
= 0

c_e_x3002_:
-3 x150
+1 x604
-1 x605
= 0

c_e_x3003_:
-37 x151
+1 x608
-1 x609
= 0

c_e_x3004_:
-3 x152
+1 x612
-1 x613
= 0

c_e_x3005_:
-3 x153
+1 x616
-1 x617
= 0

c_e_x3006_:
-11 x154
+1 x620
-1 x621
= 0

c_e_x3007_:
-3 x155
+1 x624
-1 x625
= 0

c_e_x3008_:
-3 x157
+1 x628
-1 x629
= 0

c_e_x3009_:
-46 x158
+1 x632
-1 x633
= 0

c_e_x3010_:
-3 x159
+1 x636
-1 x637
= 0

c_e_x3011_:
-3 x160
+1 x640
-1 x641
= 0

c_e_x3012_:
-26 x161
+1 x644
-1 x645
= 0

c_e_x3013_:
-3 x162
+1 x648
-1 x649
= 0

c_e_x3014_:
-3 x163
+1 x652
-1 x653
= 0

c_e_x3015_:
-37 x164
+1 x656
-1 x657
= 0

c_e_x3016_:
-3 x165
+1 x660
-1 x661
= 0

c_e_x3017_:
-3 x166
+1 x664
-1 x665
= 0

c_e_x3018_:
-11 x167
+1 x668
-1 x669
= 0

c_e_x3019_:
-3 x168
+1 x672
-1 x673
= 0

c_e_x3020_:
-3 x170
+1 x676
-1 x677
= 0

c_e_x3021_:
-46 x171
+1 x680
-1 x681
= 0

c_e_x3022_:
-3 x172
+1 x684
-1 x685
= 0

c_e_x3023_:
-3 x173
+1 x688
-1 x689
= 0

c_e_x3024_:
-26 x174
+1 x692
-1 x693
= 0

c_e_x3025_:
-3 x175
+1 x696
-1 x697
= 0

c_e_x3026_:
-3 x176
+1 x700
-1 x701
= 0

c_e_x3027_:
-37 x177
+1 x704
-1 x705
= 0

c_e_x3028_:
-3 x178
+1 x708
-1 x709
= 0

c_e_x3029_:
-3 x179
+1 x712
-1 x713
= 0

c_e_x3030_:
-11 x180
+1 x716
-1 x717
= 0

c_e_x3031_:
-3 x181
+1 x720
-1 x721
= 0

c_e_x3032_:
-3 x183
+1 x724
-1 x725
= 0

c_e_x3033_:
-46 x184
+1 x728
-1 x729
= 0

c_e_x3034_:
-3 x185
+1 x732
-1 x733
= 0

c_e_x3035_:
-3 x186
+1 x736
-1 x737
= 0

c_e_x3036_:
-26 x187
+1 x740
-1 x741
= 0

c_e_x3037_:
-3 x188
+1 x744
-1 x745
= 0

c_e_x3038_:
-3 x189
+1 x748
-1 x749
= 0

c_e_x3039_:
-37 x190
+1 x752
-1 x753
= 0

c_e_x3040_:
-3 x191
+1 x756
-1 x757
= 0

c_e_x3041_:
-3 x192
+1 x760
-1 x761
= 0

c_e_x3042_:
-11 x193
+1 x764
-1 x765
= 0

c_e_x3043_:
-3 x194
+1 x768
-1 x769
= 0

c_e_x3044_:
-3 x196
+1 x772
-1 x773
= 0

c_e_x3045_:
-46 x197
+1 x776
-1 x777
= 0

c_e_x3046_:
-3 x198
+1 x780
-1 x781
= 0

c_e_x3047_:
-3 x199
+1 x784
-1 x785
= 0

c_e_x3048_:
-26 x200
+1 x788
-1 x789
= 0

c_e_x3049_:
-3 x201
+1 x792
-1 x793
= 0

c_e_x3050_:
-3 x202
+1 x796
-1 x797
= 0

c_e_x3051_:
-37 x203
+1 x800
-1 x801
= 0

c_e_x3052_:
-3 x204
+1 x804
-1 x805
= 0

c_e_x3053_:
-3 x205
+1 x808
-1 x809
= 0

c_e_x3054_:
-11 x206
+1 x812
-1 x813
= 0

c_e_x3055_:
-3 x207
+1 x816
-1 x817
= 0

c_e_x3056_:
-3 x209
+1 x820
-1 x821
= 0

c_e_x3057_:
-46 x210
+1 x824
-1 x825
= 0

c_e_x3058_:
-3 x211
+1 x828
-1 x829
= 0

c_e_x3059_:
-3 x212
+1 x832
-1 x833
= 0

c_e_x3060_:
-26 x213
+1 x836
-1 x837
= 0

c_e_x3061_:
-3 x214
+1 x840
-1 x841
= 0

c_e_x3062_:
-3 x215
+1 x844
-1 x845
= 0

c_e_x3063_:
-37 x216
+1 x848
-1 x849
= 0

c_e_x3064_:
-3 x217
+1 x852
-1 x853
= 0

c_e_x3065_:
-3 x218
+1 x856
-1 x857
= 0

c_e_x3066_:
-11 x219
+1 x860
-1 x861
= 0

c_e_x3067_:
-3 x220
+1 x864
-1 x865
= 0

c_e_x3068_:
-3 x222
+1 x868
-1 x869
= 0

c_e_x3069_:
-46 x223
+1 x872
-1 x873
= 0

c_e_x3070_:
-3 x224
+1 x876
-1 x877
= 0

c_e_x3071_:
-3 x225
+1 x880
-1 x881
= 0

c_e_x3072_:
-26 x226
+1 x884
-1 x885
= 0

c_e_x3073_:
-3 x227
+1 x888
-1 x889
= 0

c_e_x3074_:
-3 x228
+1 x892
-1 x893
= 0

c_e_x3075_:
-37 x229
+1 x896
-1 x897
= 0

c_e_x3076_:
-3 x230
+1 x900
-1 x901
= 0

c_e_x3077_:
-3 x231
+1 x904
-1 x905
= 0

c_e_x3078_:
-11 x232
+1 x908
-1 x909
= 0

c_e_x3079_:
-3 x233
+1 x912
-1 x913
= 0

c_e_x3080_:
-3 x235
+1 x916
-1 x917
= 0

c_e_x3081_:
-46 x236
+1 x920
-1 x921
= 0

c_e_x3082_:
-3 x237
+1 x924
-1 x925
= 0

c_e_x3083_:
-3 x238
+1 x928
-1 x929
= 0

c_e_x3084_:
-26 x239
+1 x932
-1 x933
= 0

c_e_x3085_:
-3 x240
+1 x936
-1 x937
= 0

c_e_x3086_:
-3 x241
+1 x940
-1 x941
= 0

c_e_x3087_:
-37 x242
+1 x944
-1 x945
= 0

c_e_x3088_:
-3 x243
+1 x948
-1 x949
= 0

c_e_x3089_:
-3 x244
+1 x952
-1 x953
= 0

c_e_x3090_:
-11 x245
+1 x956
-1 x957
= 0

c_e_x3091_:
-3 x246
+1 x960
-1 x961
= 0

c_e_x3092_:
-3 x248
+1 x964
-1 x965
= 0

c_e_x3093_:
-46 x249
+1 x968
-1 x969
= 0

c_e_x3094_:
-3 x250
+1 x972
-1 x973
= 0

c_e_x3095_:
-3 x251
+1 x976
-1 x977
= 0

c_e_x3096_:
-26 x252
+1 x980
-1 x981
= 0

c_e_x3097_:
-3 x253
+1 x984
-1 x985
= 0

c_e_x3098_:
-3 x254
+1 x988
-1 x989
= 0

c_e_x3099_:
-37 x255
+1 x992
-1 x993
= 0

c_e_x3100_:
-3 x256
+1 x996
-1 x997
= 0

c_e_x3101_:
-3 x257
+1 x1000
-1 x1001
= 0

c_e_x3102_:
-11 x258
+1 x1004
-1 x1005
= 0

c_e_x3103_:
-3 x259
+1 x1008
-1 x1009
= 0

c_e_x3104_:
-3 x261
+1 x1012
-1 x1013
= 0

c_e_x3105_:
-46 x262
+1 x1016
-1 x1017
= 0

c_e_x3106_:
-3 x263
+1 x1020
-1 x1021
= 0

c_e_x3107_:
-3 x264
+1 x1024
-1 x1025
= 0

c_e_x3108_:
-26 x265
+1 x1028
-1 x1029
= 0

c_e_x3109_:
-3 x266
+1 x1032
-1 x1033
= 0

c_e_x3110_:
-3 x267
+1 x1036
-1 x1037
= 0

c_e_x3111_:
-37 x268
+1 x1040
-1 x1041
= 0

c_e_x3112_:
-3 x269
+1 x1044
-1 x1045
= 0

c_e_x3113_:
-3 x270
+1 x1048
-1 x1049
= 0

c_e_x3114_:
-11 x271
+1 x1052
-1 x1053
= 0

c_e_x3115_:
-3 x272
+1 x1056
-1 x1057
= 0

c_e_x3116_:
-3 x274
+1 x1060
-1 x1061
= 0

c_e_x3117_:
-46 x275
+1 x1064
-1 x1065
= 0

c_e_x3118_:
-3 x276
+1 x1068
-1 x1069
= 0

c_e_x3119_:
-3 x277
+1 x1072
-1 x1073
= 0

c_e_x3120_:
-26 x278
+1 x1076
-1 x1077
= 0

c_e_x3121_:
-3 x279
+1 x1080
-1 x1081
= 0

c_e_x3122_:
-3 x280
+1 x1084
-1 x1085
= 0

c_e_x3123_:
-37 x281
+1 x1088
-1 x1089
= 0

c_e_x3124_:
-3 x282
+1 x1092
-1 x1093
= 0

c_e_x3125_:
-3 x283
+1 x1096
-1 x1097
= 0

c_e_x3126_:
-11 x284
+1 x1100
-1 x1101
= 0

c_e_x3127_:
-3 x285
+1 x1104
-1 x1105
= 0

c_e_x3128_:
-3 x287
+1 x1108
-1 x1109
= 0

c_e_x3129_:
-46 x288
+1 x1112
-1 x1113
= 0

c_e_x3130_:
-3 x289
+1 x1116
-1 x1117
= 0

c_e_x3131_:
-3 x290
+1 x1120
-1 x1121
= 0

c_e_x3132_:
-26 x291
+1 x1124
-1 x1125
= 0

c_e_x3133_:
-3 x292
+1 x1128
-1 x1129
= 0

c_e_x3134_:
-3 x293
+1 x1132
-1 x1133
= 0

c_e_x3135_:
-37 x294
+1 x1136
-1 x1137
= 0

c_e_x3136_:
-3 x295
+1 x1140
-1 x1141
= 0

c_e_x3137_:
-3 x296
+1 x1144
-1 x1145
= 0

c_e_x3138_:
-11 x297
+1 x1148
-1 x1149
= 0

c_e_x3139_:
-3 x298
+1 x1152
-1 x1153
= 0

c_e_x3140_:
-3 x300
+1 x1156
-1 x1157
= 0

c_e_x3141_:
-46 x301
+1 x1160
-1 x1161
= 0

c_e_x3142_:
-3 x302
+1 x1164
-1 x1165
= 0

c_e_x3143_:
-3 x303
+1 x1168
-1 x1169
= 0

c_e_x3144_:
-26 x304
+1 x1172
-1 x1173
= 0

c_e_x3145_:
-3 x305
+1 x1176
-1 x1177
= 0

c_e_x3146_:
-3 x306
+1 x1180
-1 x1181
= 0

c_e_x3147_:
-37 x307
+1 x1184
-1 x1185
= 0

c_e_x3148_:
-3 x308
+1 x1188
-1 x1189
= 0

c_e_x3149_:
-3 x309
+1 x1192
-1 x1193
= 0

c_e_x3150_:
-11 x310
+1 x1196
-1 x1197
= 0

c_e_x3151_:
-3 x311
+1 x1200
-1 x1201
= 0

c_e_x3152_:
-3 x313
+1 x1204
-1 x1205
= 0

c_e_x3153_:
-46 x314
+1 x1208
-1 x1209
= 0

c_e_x3154_:
-3 x315
+1 x1212
-1 x1213
= 0

c_e_x3155_:
-3 x316
+1 x1216
-1 x1217
= 0

c_e_x3156_:
-26 x317
+1 x1220
-1 x1221
= 0

c_e_x3157_:
-3 x318
+1 x1224
-1 x1225
= 0

c_e_x3158_:
-3 x319
+1 x1228
-1 x1229
= 0

c_e_x3159_:
-37 x320
+1 x1232
-1 x1233
= 0

c_e_x3160_:
-3 x321
+1 x1236
-1 x1237
= 0

c_e_x3161_:
-3 x322
+1 x1240
-1 x1241
= 0

c_e_x3162_:
-11 x323
+1 x1244
-1 x1245
= 0

c_e_x3163_:
-3 x324
+1 x1248
-1 x1249
= 0

c_e_x3164_:
-3 x326
+1 x1252
-1 x1253
= 0

c_e_x3165_:
-46 x327
+1 x1256
-1 x1257
= 0

c_e_x3166_:
-3 x328
+1 x1260
-1 x1261
= 0

c_e_x3167_:
-3 x329
+1 x1264
-1 x1265
= 0

c_e_x3168_:
-26 x330
+1 x1268
-1 x1269
= 0

c_e_x3169_:
-3 x331
+1 x1272
-1 x1273
= 0

c_e_x3170_:
-3 x332
+1 x1276
-1 x1277
= 0

c_e_x3171_:
-37 x333
+1 x1280
-1 x1281
= 0

c_e_x3172_:
-3 x334
+1 x1284
-1 x1285
= 0

c_e_x3173_:
-3 x335
+1 x1288
-1 x1289
= 0

c_e_x3174_:
-11 x336
+1 x1292
-1 x1293
= 0

c_e_x3175_:
-3 x337
+1 x1296
-1 x1297
= 0

c_e_x3176_:
-1 x339
-1 x343
-1 x347
-1 x351
-1 x355
-1 x359
-1 x363
-1 x367
-1 x371
-1 x375
-1 x379
-1 x383
+1 x3177
= 0

c_e_x3178_:
-1 x387
-1 x391
-1 x395
-1 x399
-1 x403
-1 x407
-1 x411
-1 x415
-1 x419
-1 x423
-1 x427
-1 x431
+1 x3179
= 0

c_e_x3180_:
-1 x435
-1 x439
-1 x443
-1 x447
-1 x451
-1 x455
-1 x459
-1 x463
-1 x467
-1 x471
-1 x475
-1 x479
+1 x3181
= 0

c_e_x3182_:
-1 x483
-1 x487
-1 x491
-1 x495
-1 x499
-1 x503
-1 x507
-1 x511
-1 x515
-1 x519
-1 x523
-1 x527
+1 x3183
= 0

c_e_x3184_:
-1 x531
-1 x535
-1 x539
-1 x543
-1 x547
-1 x551
-1 x555
-1 x559
-1 x563
-1 x567
-1 x571
-1 x575
+1 x3185
= 0

c_e_x3186_:
-1 x579
-1 x583
-1 x587
-1 x591
-1 x595
-1 x599
-1 x603
-1 x607
-1 x611
-1 x615
-1 x619
-1 x623
+1 x3187
= 0

c_e_x3188_:
-1 x627
-1 x631
-1 x635
-1 x639
-1 x643
-1 x647
-1 x651
-1 x655
-1 x659
-1 x663
-1 x667
-1 x671
+1 x3189
= 0

c_e_x3190_:
-1 x675
-1 x679
-1 x683
-1 x687
-1 x691
-1 x695
-1 x699
-1 x703
-1 x707
-1 x711
-1 x715
-1 x719
+1 x3191
= 0

c_e_x3192_:
-1 x723
-1 x727
-1 x731
-1 x735
-1 x739
-1 x743
-1 x747
-1 x751
-1 x755
-1 x759
-1 x763
-1 x767
+1 x3193
= 0

c_e_x3194_:
-1 x771
-1 x775
-1 x779
-1 x783
-1 x787
-1 x791
-1 x795
-1 x799
-1 x803
-1 x807
-1 x811
-1 x815
+1 x3195
= 0

c_e_x3196_:
-1 x819
-1 x823
-1 x827
-1 x831
-1 x835
-1 x839
-1 x843
-1 x847
-1 x851
-1 x855
-1 x859
-1 x863
+1 x3197
= 0

c_e_x3198_:
-1 x867
-1 x871
-1 x875
-1 x879
-1 x883
-1 x887
-1 x891
-1 x895
-1 x899
-1 x903
-1 x907
-1 x911
+1 x3199
= 0

c_e_x3200_:
-1 x915
-1 x919
-1 x923
-1 x927
-1 x931
-1 x935
-1 x939
-1 x943
-1 x947
-1 x951
-1 x955
-1 x959
+1 x3201
= 0

c_e_x3202_:
-1 x963
-1 x967
-1 x971
-1 x975
-1 x979
-1 x983
-1 x987
-1 x991
-1 x995
-1 x999
-1 x1003
-1 x1007
+1 x3203
= 0

c_e_x3204_:
-1 x1011
-1 x1015
-1 x1019
-1 x1023
-1 x1027
-1 x1031
-1 x1035
-1 x1039
-1 x1043
-1 x1047
-1 x1051
-1 x1055
+1 x3205
= 0

c_e_x3206_:
-1 x1059
-1 x1063
-1 x1067
-1 x1071
-1 x1075
-1 x1079
-1 x1083
-1 x1087
-1 x1091
-1 x1095
-1 x1099
-1 x1103
+1 x3207
= 0

c_e_x3208_:
-1 x1107
-1 x1111
-1 x1115
-1 x1119
-1 x1123
-1 x1127
-1 x1131
-1 x1135
-1 x1139
-1 x1143
-1 x1147
-1 x1151
+1 x3209
= 0

c_e_x3210_:
-1 x1155
-1 x1159
-1 x1163
-1 x1167
-1 x1171
-1 x1175
-1 x1179
-1 x1183
-1 x1187
-1 x1191
-1 x1195
-1 x1199
+1 x3211
= 0

c_e_x3212_:
-1 x1203
-1 x1207
-1 x1211
-1 x1215
-1 x1219
-1 x1223
-1 x1227
-1 x1231
-1 x1235
-1 x1239
-1 x1243
-1 x1247
+1 x3213
= 0

c_e_x3214_:
-1 x1251
-1 x1255
-1 x1259
-1 x1263
-1 x1267
-1 x1271
-1 x1275
-1 x1279
-1 x1283
-1 x1287
-1 x1291
-1 x1295
+1 x3215
= 0

c_e_x3216_:
-1 x79
-1 x80
-1 x81
+1 x3217
= 0

c_e_x3218_:
-1 x82
-1 x83
-1 x84
+1 x3219
= 0

c_e_x3220_:
-1 x85
-1 x86
-1 x87
+1 x3221
= 0

c_e_x3222_:
-1 x88
-1 x89
-1 x90
+1 x3223
= 0

c_e_x3224_:
-1 x92
-1 x93
-1 x94
+1 x3225
= 0

c_e_x3226_:
-1 x95
-1 x96
-1 x97
+1 x3227
= 0

c_e_x3228_:
-1 x98
-1 x99
-1 x100
+1 x3229
= 0

c_e_x3230_:
-1 x101
-1 x102
-1 x103
+1 x3231
= 0

c_e_x3232_:
-1 x105
-1 x106
-1 x107
+1 x3233
= 0

c_e_x3234_:
-1 x108
-1 x109
-1 x110
+1 x3235
= 0

c_e_x3236_:
-1 x111
-1 x112
-1 x113
+1 x3237
= 0

c_e_x3238_:
-1 x114
-1 x115
-1 x116
+1 x3239
= 0

c_e_x3240_:
-1 x118
-1 x119
-1 x120
+1 x3241
= 0

c_e_x3242_:
-1 x121
-1 x122
-1 x123
+1 x3243
= 0

c_e_x3244_:
-1 x124
-1 x125
-1 x126
+1 x3245
= 0

c_e_x3246_:
-1 x127
-1 x128
-1 x129
+1 x3247
= 0

c_e_x3248_:
-1 x131
-1 x132
-1 x133
+1 x3249
= 0

c_e_x3250_:
-1 x134
-1 x135
-1 x136
+1 x3251
= 0

c_e_x3252_:
-1 x137
-1 x138
-1 x139
+1 x3253
= 0

c_e_x3254_:
-1 x140
-1 x141
-1 x142
+1 x3255
= 0

c_e_x3256_:
-1 x144
-1 x145
-1 x146
+1 x3257
= 0

c_e_x3258_:
-1 x147
-1 x148
-1 x149
+1 x3259
= 0

c_e_x3260_:
-1 x150
-1 x151
-1 x152
+1 x3261
= 0

c_e_x3262_:
-1 x153
-1 x154
-1 x155
+1 x3263
= 0

c_e_x3264_:
-1 x157
-1 x158
-1 x159
+1 x3265
= 0

c_e_x3266_:
-1 x160
-1 x161
-1 x162
+1 x3267
= 0

c_e_x3268_:
-1 x163
-1 x164
-1 x165
+1 x3269
= 0

c_e_x3270_:
-1 x166
-1 x167
-1 x168
+1 x3271
= 0

c_e_x3272_:
-1 x170
-1 x171
-1 x172
+1 x3273
= 0

c_e_x3274_:
-1 x173
-1 x174
-1 x175
+1 x3275
= 0

c_e_x3276_:
-1 x176
-1 x177
-1 x178
+1 x3277
= 0

c_e_x3278_:
-1 x179
-1 x180
-1 x181
+1 x3279
= 0

c_e_x3280_:
-1 x183
-1 x184
-1 x185
+1 x3281
= 0

c_e_x3282_:
-1 x186
-1 x187
-1 x188
+1 x3283
= 0

c_e_x3284_:
-1 x189
-1 x190
-1 x191
+1 x3285
= 0

c_e_x3286_:
-1 x192
-1 x193
-1 x194
+1 x3287
= 0

c_e_x3288_:
-1 x196
-1 x197
-1 x198
+1 x3289
= 0

c_e_x3290_:
-1 x199
-1 x200
-1 x201
+1 x3291
= 0

c_e_x3292_:
-1 x202
-1 x203
-1 x204
+1 x3293
= 0

c_e_x3294_:
-1 x205
-1 x206
-1 x207
+1 x3295
= 0

c_e_x3296_:
-1 x209
-1 x210
-1 x211
+1 x3297
= 0

c_e_x3298_:
-1 x212
-1 x213
-1 x214
+1 x3299
= 0

c_e_x3300_:
-1 x215
-1 x216
-1 x217
+1 x3301
= 0

c_e_x3302_:
-1 x218
-1 x219
-1 x220
+1 x3303
= 0

c_e_x3304_:
-1 x222
-1 x223
-1 x224
+1 x3305
= 0

c_e_x3306_:
-1 x225
-1 x226
-1 x227
+1 x3307
= 0

c_e_x3308_:
-1 x228
-1 x229
-1 x230
+1 x3309
= 0

c_e_x3310_:
-1 x231
-1 x232
-1 x233
+1 x3311
= 0

c_e_x3312_:
-1 x235
-1 x236
-1 x237
+1 x3313
= 0

c_e_x3314_:
-1 x238
-1 x239
-1 x240
+1 x3315
= 0

c_e_x3316_:
-1 x241
-1 x242
-1 x243
+1 x3317
= 0

c_e_x3318_:
-1 x244
-1 x245
-1 x246
+1 x3319
= 0

c_e_x3320_:
-1 x248
-1 x249
-1 x250
+1 x3321
= 0

c_e_x3322_:
-1 x251
-1 x252
-1 x253
+1 x3323
= 0

c_e_x3324_:
-1 x254
-1 x255
-1 x256
+1 x3325
= 0

c_e_x3326_:
-1 x257
-1 x258
-1 x259
+1 x3327
= 0

c_e_x3328_:
-1 x261
-1 x262
-1 x263
+1 x3329
= 0

c_e_x3330_:
-1 x264
-1 x265
-1 x266
+1 x3331
= 0

c_e_x3332_:
-1 x267
-1 x268
-1 x269
+1 x3333
= 0

c_e_x3334_:
-1 x270
-1 x271
-1 x272
+1 x3335
= 0

c_e_x3336_:
-1 x274
-1 x275
-1 x276
+1 x3337
= 0

c_e_x3338_:
-1 x277
-1 x278
-1 x279
+1 x3339
= 0

c_e_x3340_:
-1 x280
-1 x281
-1 x282
+1 x3341
= 0

c_e_x3342_:
-1 x283
-1 x284
-1 x285
+1 x3343
= 0

c_e_x3344_:
-1 x287
-1 x288
-1 x289
+1 x3345
= 0

c_e_x3346_:
-1 x290
-1 x291
-1 x292
+1 x3347
= 0

c_e_x3348_:
-1 x293
-1 x294
-1 x295
+1 x3349
= 0

c_e_x3350_:
-1 x296
-1 x297
-1 x298
+1 x3351
= 0

c_e_x3352_:
-1 x300
-1 x301
-1 x302
+1 x3353
= 0

c_e_x3354_:
-1 x303
-1 x304
-1 x305
+1 x3355
= 0

c_e_x3356_:
-1 x306
-1 x307
-1 x308
+1 x3357
= 0

c_e_x3358_:
-1 x309
-1 x310
-1 x311
+1 x3359
= 0

c_e_x3360_:
-1 x313
-1 x314
-1 x315
+1 x3361
= 0

c_e_x3362_:
-1 x316
-1 x317
-1 x318
+1 x3363
= 0

c_e_x3364_:
-1 x319
-1 x320
-1 x321
+1 x3365
= 0

c_e_x3366_:
-1 x322
-1 x323
-1 x324
+1 x3367
= 0

c_e_x3368_:
-1 x326
-1 x327
-1 x328
+1 x3369
= 0

c_e_x3370_:
-1 x329
-1 x330
-1 x331
+1 x3371
= 0

c_e_x3372_:
-1 x332
-1 x333
-1 x334
+1 x3373
= 0

c_e_x3374_:
-1 x335
-1 x336
-1 x337
+1 x3375
= 0

c_u_x3376_:
-1 x54
+1 x3217
<= 0

c_u_x3377_:
-1 x59
+1 x3219
<= 0

c_u_x3378_:
-1 x64
+1 x3221
<= 0

c_u_x3379_:
-1 x69
+1 x3223
<= 0

c_u_x3380_:
-1 x55
+1 x3225
<= 0

c_u_x3381_:
-1 x60
+1 x3227
<= 0

c_u_x3382_:
-1 x65
+1 x3229
<= 0

c_u_x3383_:
-1 x70
+1 x3231
<= 0

c_u_x3384_:
-1 x56
+1 x3233
<= 0

c_u_x3385_:
-1 x61
+1 x3235
<= 0

c_u_x3386_:
-1 x66
+1 x3237
<= 0

c_u_x3387_:
-1 x71
+1 x3239
<= 0

c_u_x3388_:
-1 x57
+1 x3241
<= 0

c_u_x3389_:
-1 x62
+1 x3243
<= 0

c_u_x3390_:
-1 x67
+1 x3245
<= 0

c_u_x3391_:
-1 x72
+1 x3247
<= 0

c_u_x3392_:
-1 x58
+1 x3249
<= 0

c_u_x3393_:
-1 x63
+1 x3251
<= 0

c_u_x3394_:
-1 x68
+1 x3253
<= 0

c_u_x3395_:
-1 x73
+1 x3255
<= 0

c_u_x3396_:
-1 x54
+1 x3257
<= 0

c_u_x3397_:
-1 x59
+1 x3259
<= 0

c_u_x3398_:
-1 x64
+1 x3261
<= 0

c_u_x3399_:
-1 x69
+1 x3263
<= 0

c_u_x3400_:
-1 x55
+1 x3265
<= 0

c_u_x3401_:
-1 x60
+1 x3267
<= 0

c_u_x3402_:
-1 x65
+1 x3269
<= 0

c_u_x3403_:
-1 x70
+1 x3271
<= 0

c_u_x3404_:
-1 x56
+1 x3273
<= 0

c_u_x3405_:
-1 x61
+1 x3275
<= 0

c_u_x3406_:
-1 x66
+1 x3277
<= 0

c_u_x3407_:
-1 x71
+1 x3279
<= 0

c_u_x3408_:
-1 x57
+1 x3281
<= 0

c_u_x3409_:
-1 x62
+1 x3283
<= 0

c_u_x3410_:
-1 x67
+1 x3285
<= 0

c_u_x3411_:
-1 x72
+1 x3287
<= 0

c_u_x3412_:
-1 x58
+1 x3289
<= 0

c_u_x3413_:
-1 x63
+1 x3291
<= 0

c_u_x3414_:
-1 x68
+1 x3293
<= 0

c_u_x3415_:
-1 x73
+1 x3295
<= 0

c_u_x3416_:
-1 x54
+1 x3297
<= 0

c_u_x3417_:
-1 x59
+1 x3299
<= 0

c_u_x3418_:
-1 x64
+1 x3301
<= 0

c_u_x3419_:
-1 x69
+1 x3303
<= 0

c_u_x3420_:
-1 x55
+1 x3305
<= 0

c_u_x3421_:
-1 x60
+1 x3307
<= 0

c_u_x3422_:
-1 x65
+1 x3309
<= 0

c_u_x3423_:
-1 x70
+1 x3311
<= 0

c_u_x3424_:
-1 x56
+1 x3313
<= 0

c_u_x3425_:
-1 x61
+1 x3315
<= 0

c_u_x3426_:
-1 x66
+1 x3317
<= 0

c_u_x3427_:
-1 x71
+1 x3319
<= 0

c_u_x3428_:
-1 x57
+1 x3321
<= 0

c_u_x3429_:
-1 x62
+1 x3323
<= 0

c_u_x3430_:
-1 x67
+1 x3325
<= 0

c_u_x3431_:
-1 x72
+1 x3327
<= 0

c_u_x3432_:
-1 x58
+1 x3329
<= 0

c_u_x3433_:
-1 x63
+1 x3331
<= 0

c_u_x3434_:
-1 x68
+1 x3333
<= 0

c_u_x3435_:
-1 x73
+1 x3335
<= 0

c_u_x3436_:
-1 x54
+1 x3337
<= 0

c_u_x3437_:
-1 x59
+1 x3339
<= 0

c_u_x3438_:
-1 x64
+1 x3341
<= 0

c_u_x3439_:
-1 x69
+1 x3343
<= 0

c_u_x3440_:
-1 x55
+1 x3345
<= 0

c_u_x3441_:
-1 x60
+1 x3347
<= 0

c_u_x3442_:
-1 x65
+1 x3349
<= 0

c_u_x3443_:
-1 x70
+1 x3351
<= 0

c_u_x3444_:
-1 x56
+1 x3353
<= 0

c_u_x3445_:
-1 x61
+1 x3355
<= 0

c_u_x3446_:
-1 x66
+1 x3357
<= 0

c_u_x3447_:
-1 x71
+1 x3359
<= 0

c_u_x3448_:
-1 x57
+1 x3361
<= 0

c_u_x3449_:
-1 x62
+1 x3363
<= 0

c_u_x3450_:
-1 x67
+1 x3365
<= 0

c_u_x3451_:
-1 x72
+1 x3367
<= 0

c_u_x3452_:
-1 x58
+1 x3369
<= 0

c_u_x3453_:
-1 x63
+1 x3371
<= 0

c_u_x3454_:
-1 x68
+1 x3373
<= 0

c_u_x3455_:
-1 x73
+1 x3375
<= 0

c_u_x3456_:
+1 x3217
-1 x3457
<= 0

c_u_x3458_:
+1 x3219
-1 x3459
<= 0

c_u_x3460_:
+1 x3221
-1 x3461
<= 0

c_u_x3462_:
+1 x3223
-1 x3463
<= 0

c_u_x3464_:
+1 x3225
-1 x3465
<= 0

c_u_x3466_:
+1 x3227
-1 x3467
<= 0

c_u_x3468_:
+1 x3229
-1 x3469
<= 0

c_u_x3470_:
+1 x3231
-1 x3471
<= 0

c_u_x3472_:
+1 x3233
-1 x3473
<= 0

c_u_x3474_:
+1 x3235
-1 x3475
<= 0

c_u_x3476_:
+1 x3237
-1 x3477
<= 0

c_u_x3478_:
+1 x3239
-1 x3479
<= 0

c_u_x3480_:
+1 x3241
-1 x3481
<= 0

c_u_x3482_:
+1 x3243
-1 x3483
<= 0

c_u_x3484_:
+1 x3245
-1 x3485
<= 0

c_u_x3486_:
+1 x3247
-1 x3487
<= 0

c_u_x3488_:
+1 x3249
-1 x3489
<= 0

c_u_x3490_:
+1 x3251
-1 x3491
<= 0

c_u_x3492_:
+1 x3253
-1 x3493
<= 0

c_u_x3494_:
+1 x3255
-1 x3495
<= 0

c_u_x3496_:
+1 x3257
-1 x3497
<= 0

c_u_x3498_:
+1 x3259
-1 x3499
<= 0

c_u_x3500_:
+1 x3261
-1 x3501
<= 0

c_u_x3502_:
+1 x3263
-1 x3503
<= 0

c_u_x3504_:
+1 x3265
-1 x3505
<= 0

c_u_x3506_:
+1 x3267
-1 x3507
<= 0

c_u_x3508_:
+1 x3269
-1 x3509
<= 0

c_u_x3510_:
+1 x3271
-1 x3511
<= 0

c_u_x3512_:
+1 x3273
-1 x3513
<= 0

c_u_x3514_:
+1 x3275
-1 x3515
<= 0

c_u_x3516_:
+1 x3277
-1 x3517
<= 0

c_u_x3518_:
+1 x3279
-1 x3519
<= 0

c_u_x3520_:
+1 x3281
-1 x3521
<= 0

c_u_x3522_:
+1 x3283
-1 x3523
<= 0

c_u_x3524_:
+1 x3285
-1 x3525
<= 0

c_u_x3526_:
+1 x3287
-1 x3527
<= 0

c_u_x3528_:
+1 x3289
-1 x3529
<= 0

c_u_x3530_:
+1 x3291
-1 x3531
<= 0

c_u_x3532_:
+1 x3293
-1 x3533
<= 0

c_u_x3534_:
+1 x3295
-1 x3535
<= 0

c_u_x3536_:
+1 x3297
-1 x3537
<= 0

c_u_x3538_:
+1 x3299
-1 x3539
<= 0

c_u_x3540_:
+1 x3301
-1 x3541
<= 0

c_u_x3542_:
+1 x3303
-1 x3543
<= 0

c_u_x3544_:
+1 x3305
-1 x3545
<= 0

c_u_x3546_:
+1 x3307
-1 x3547
<= 0

c_u_x3548_:
+1 x3309
-1 x3549
<= 0

c_u_x3550_:
+1 x3311
-1 x3551
<= 0

c_u_x3552_:
+1 x3313
-1 x3553
<= 0

c_u_x3554_:
+1 x3315
-1 x3555
<= 0

c_u_x3556_:
+1 x3317
-1 x3557
<= 0

c_u_x3558_:
+1 x3319
-1 x3559
<= 0

c_u_x3560_:
+1 x3321
-1 x3561
<= 0

c_u_x3562_:
+1 x3323
-1 x3563
<= 0

c_u_x3564_:
+1 x3325
-1 x3565
<= 0

c_u_x3566_:
+1 x3327
-1 x3567
<= 0

c_u_x3568_:
+1 x3329
-1 x3569
<= 0

c_u_x3570_:
+1 x3331
-1 x3571
<= 0

c_u_x3572_:
+1 x3333
-1 x3573
<= 0

c_u_x3574_:
+1 x3335
-1 x3575
<= 0

c_u_x3576_:
+1 x3337
-1 x3577
<= 0

c_u_x3578_:
+1 x3339
-1 x3579
<= 0

c_u_x3580_:
+1 x3341
-1 x3581
<= 0

c_u_x3582_:
+1 x3343
-1 x3583
<= 0

c_u_x3584_:
+1 x3345
-1 x3585
<= 0

c_u_x3586_:
+1 x3347
-1 x3587
<= 0

c_u_x3588_:
+1 x3349
-1 x3589
<= 0

c_u_x3590_:
+1 x3351
-1 x3591
<= 0

c_u_x3592_:
+1 x3353
-1 x3593
<= 0

c_u_x3594_:
+1 x3355
-1 x3595
<= 0

c_u_x3596_:
+1 x3357
-1 x3597
<= 0

c_u_x3598_:
+1 x3359
-1 x3599
<= 0

c_u_x3600_:
+1 x3361
-1 x3601
<= 0

c_u_x3602_:
+1 x3363
-1 x3603
<= 0

c_u_x3604_:
+1 x3365
-1 x3605
<= 0

c_u_x3606_:
+1 x3367
-1 x3607
<= 0

c_u_x3608_:
+1 x3369
-1 x3609
<= 0

c_u_x3610_:
+1 x3371
-1 x3611
<= 0

c_u_x3612_:
+1 x3373
-1 x3613
<= 0

c_u_x3614_:
+1 x3375
-1 x3615
<= 0

c_e_x3616_:
+1 x3457
+1 x3465
+1 x3473
+1 x3481
+1 x3489
= 1

c_e_x3617_:
+1 x3459
+1 x3467
+1 x3475
+1 x3483
+1 x3491
= 1

c_e_x3618_:
+1 x3461
+1 x3469
+1 x3477
+1 x3485
+1 x3493
= 1

c_e_x3619_:
+1 x3463
+1 x3471
+1 x3479
+1 x3487
+1 x3495
= 1

c_e_x3620_:
+1 x3497
+1 x3505
+1 x3513
+1 x3521
+1 x3529
= 1

c_e_x3621_:
+1 x3499
+1 x3507
+1 x3515
+1 x3523
+1 x3531
= 1

c_e_x3622_:
+1 x3501
+1 x3509
+1 x3517
+1 x3525
+1 x3533
= 1

c_e_x3623_:
+1 x3503
+1 x3511
+1 x3519
+1 x3527
+1 x3535
= 1

c_e_x3624_:
+1 x3537
+1 x3545
+1 x3553
+1 x3561
+1 x3569
= 1

c_e_x3625_:
+1 x3539
+1 x3547
+1 x3555
+1 x3563
+1 x3571
= 1

c_e_x3626_:
+1 x3541
+1 x3549
+1 x3557
+1 x3565
+1 x3573
= 1

c_e_x3627_:
+1 x3543
+1 x3551
+1 x3559
+1 x3567
+1 x3575
= 1

c_e_x3628_:
+1 x3577
+1 x3585
+1 x3593
+1 x3601
+1 x3609
= 1

c_e_x3629_:
+1 x3579
+1 x3587
+1 x3595
+1 x3603
+1 x3611
= 1

c_e_x3630_:
+1 x3581
+1 x3589
+1 x3597
+1 x3605
+1 x3613
= 1

c_e_x3631_:
+1 x3583
+1 x3591
+1 x3599
+1 x3607
+1 x3615
= 1

c_u_x3632_:
+1 x3457
+1 x3459
+1 x3461
+1 x3463
<= 1

c_u_x3633_:
+1 x3465
+1 x3467
+1 x3469
+1 x3471
<= 1

c_u_x3634_:
+1 x3473
+1 x3475
+1 x3477
+1 x3479
<= 1

c_u_x3635_:
+1 x3481
+1 x3483
+1 x3485
+1 x3487
<= 1

c_u_x3636_:
+1 x3489
+1 x3491
+1 x3493
+1 x3495
<= 1

c_u_x3637_:
+1 x3497
+1 x3499
+1 x3501
+1 x3503
<= 1

c_u_x3638_:
+1 x3505
+1 x3507
+1 x3509
+1 x3511
<= 1

c_u_x3639_:
+1 x3513
+1 x3515
+1 x3517
+1 x3519
<= 1

c_u_x3640_:
+1 x3521
+1 x3523
+1 x3525
+1 x3527
<= 1

c_u_x3641_:
+1 x3529
+1 x3531
+1 x3533
+1 x3535
<= 1

c_u_x3642_:
+1 x3537
+1 x3539
+1 x3541
+1 x3543
<= 1

c_u_x3643_:
+1 x3545
+1 x3547
+1 x3549
+1 x3551
<= 1

c_u_x3644_:
+1 x3553
+1 x3555
+1 x3557
+1 x3559
<= 1

c_u_x3645_:
+1 x3561
+1 x3563
+1 x3565
+1 x3567
<= 1

c_u_x3646_:
+1 x3569
+1 x3571
+1 x3573
+1 x3575
<= 1

c_u_x3647_:
+1 x3577
+1 x3579
+1 x3581
+1 x3583
<= 1

c_u_x3648_:
+1 x3585
+1 x3587
+1 x3589
+1 x3591
<= 1

c_u_x3649_:
+1 x3593
+1 x3595
+1 x3597
+1 x3599
<= 1

c_u_x3650_:
+1 x3601
+1 x3603
+1 x3605
+1 x3607
<= 1

c_u_x3651_:
+1 x3609
+1 x3611
+1 x3613
+1 x3615
<= 1

c_u_x3652_:
+1 x54
-1 x3653
<= 0

c_u_x3654_:
+1 x55
-1 x3655
<= 0

c_u_x3656_:
+1 x56
-1 x3657
<= 0

c_u_x3658_:
+1 x57
-1 x3659
<= 0

c_u_x3660_:
+1 x58
-1 x3661
<= 0

c_u_x3662_:
+1 x59
-1 x3663
<= 0

c_u_x3664_:
+1 x60
-1 x3665
<= 0

c_u_x3666_:
+1 x61
-1 x3667
<= 0

c_u_x3668_:
+1 x62
-1 x3669
<= 0

c_u_x3670_:
+1 x63
-1 x3671
<= 0

c_u_x3672_:
+1 x64
-1 x3673
<= 0

c_u_x3674_:
+1 x65
-1 x3675
<= 0

c_u_x3676_:
+1 x66
-1 x3677
<= 0

c_u_x3678_:
+1 x67
-1 x3679
<= 0

c_u_x3680_:
+1 x68
-1 x3681
<= 0

c_u_x3682_:
+1 x69
-1 x3683
<= 0

c_u_x3684_:
+1 x70
-1 x3685
<= 0

c_u_x3686_:
+1 x71
-1 x3687
<= 0

c_u_x3688_:
+1 x72
-1 x3689
<= 0

c_u_x3690_:
+1 x73
-1 x3691
<= 0

c_u_x3692_:
-1 x2811
+1 x2815
-52.0 x3693
<= 0

c_u_x3694_:
-1 x2813
+1 x2815
-52.0 x3695
<= 0

c_u_x3696_:
-1 x2811
+1 x2825
-52.0 x3697
<= 0

c_u_x3698_:
-1 x2813
+1 x2825
-52.0 x3699
<= 0

c_u_x3700_:
-1 x2811
+1 x2835
-52.0 x3701
<= 0

c_u_x3702_:
-1 x2813
+1 x2835
-52.0 x3703
<= 0

c_u_x3704_:
-1 x2811
+1 x2845
-52.0 x3705
<= 0

c_u_x3706_:
-1 x2813
+1 x2845
-52.0 x3707
<= 0

c_u_x3708_:
+1 x2815
-1 x2821
-52.0 x3709
<= 0

c_u_x3710_:
+1 x2815
-1 x2823
-52.0 x3711
<= 0

c_u_x3712_:
-1 x2821
+1 x2825
-52.0 x3713
<= 0

c_u_x3714_:
-1 x2823
+1 x2825
-52.0 x3715
<= 0

c_u_x3716_:
-1 x2821
+1 x2835
-52.0 x3717
<= 0

c_u_x3718_:
-1 x2823
+1 x2835
-52.0 x3719
<= 0

c_u_x3720_:
-1 x2821
+1 x2845
-52.0 x3721
<= 0

c_u_x3722_:
-1 x2823
+1 x2845
-52.0 x3723
<= 0

c_u_x3724_:
+1 x2815
-1 x2831
-52.0 x3725
<= 0

c_u_x3726_:
+1 x2815
-1 x2833
-52.0 x3727
<= 0

c_u_x3728_:
+1 x2825
-1 x2831
-52.0 x3729
<= 0

c_u_x3730_:
+1 x2825
-1 x2833
-52.0 x3731
<= 0

c_u_x3732_:
-1 x2831
+1 x2835
-52.0 x3733
<= 0

c_u_x3734_:
-1 x2833
+1 x2835
-52.0 x3735
<= 0

c_u_x3736_:
-1 x2831
+1 x2845
-52.0 x3737
<= 0

c_u_x3738_:
-1 x2833
+1 x2845
-52.0 x3739
<= 0

c_u_x3740_:
+1 x2815
-1 x2841
-52.0 x3741
<= 0

c_u_x3742_:
+1 x2815
-1 x2843
-52.0 x3743
<= 0

c_u_x3744_:
+1 x2825
-1 x2841
-52.0 x3745
<= 0

c_u_x3746_:
+1 x2825
-1 x2843
-52.0 x3747
<= 0

c_u_x3748_:
+1 x2835
-1 x2841
-52.0 x3749
<= 0

c_u_x3750_:
+1 x2835
-1 x2843
-52.0 x3751
<= 0

c_u_x3752_:
-1 x2841
+1 x2845
-52.0 x3753
<= 0

c_u_x3754_:
-1 x2843
+1 x2845
-52.0 x3755
<= 0

c_u_x3756_:
-1 x2815
+1 x2851
-62.4 x3757
<= 0

c_u_x3758_:
-1 x2815
+1 x2853
-62.4 x3759
<= 0

c_u_x3760_:
-1 x2825
+1 x2851
-62.4 x3761
<= 0

c_u_x3762_:
-1 x2825
+1 x2853
-62.4 x3763
<= 0

c_u_x3764_:
-1 x2835
+1 x2851
-62.4 x3765
<= 0

c_u_x3766_:
-1 x2835
+1 x2853
-62.4 x3767
<= 0

c_u_x3768_:
-1 x2845
+1 x2851
-62.4 x3769
<= 0

c_u_x3770_:
-1 x2845
+1 x2853
-62.4 x3771
<= 0

c_u_x3772_:
-1 x2815
+1 x2861
-62.4 x3773
<= 0

c_u_x3774_:
-1 x2815
+1 x2863
-62.4 x3775
<= 0

c_u_x3776_:
-1 x2825
+1 x2861
-62.4 x3777
<= 0

c_u_x3778_:
-1 x2825
+1 x2863
-62.4 x3779
<= 0

c_u_x3780_:
-1 x2835
+1 x2861
-62.4 x3781
<= 0

c_u_x3782_:
-1 x2835
+1 x2863
-62.4 x3783
<= 0

c_u_x3784_:
-1 x2845
+1 x2861
-62.4 x3785
<= 0

c_u_x3786_:
-1 x2845
+1 x2863
-62.4 x3787
<= 0

c_u_x3788_:
-1 x2815
+1 x2871
-62.4 x3789
<= 0

c_u_x3790_:
-1 x2815
+1 x2873
-62.4 x3791
<= 0

c_u_x3792_:
-1 x2825
+1 x2871
-62.4 x3793
<= 0

c_u_x3794_:
-1 x2825
+1 x2873
-62.4 x3795
<= 0

c_u_x3796_:
-1 x2835
+1 x2871
-62.4 x3797
<= 0

c_u_x3798_:
-1 x2835
+1 x2873
-62.4 x3799
<= 0

c_u_x3800_:
-1 x2845
+1 x2871
-62.4 x3801
<= 0

c_u_x3802_:
-1 x2845
+1 x2873
-62.4 x3803
<= 0

c_u_x3804_:
-1 x2815
+1 x2881
-62.4 x3805
<= 0

c_u_x3806_:
-1 x2815
+1 x2883
-62.4 x3807
<= 0

c_u_x3808_:
-1 x2825
+1 x2881
-62.4 x3809
<= 0

c_u_x3810_:
-1 x2825
+1 x2883
-62.4 x3811
<= 0

c_u_x3812_:
-1 x2835
+1 x2881
-62.4 x3813
<= 0

c_u_x3814_:
-1 x2835
+1 x2883
-62.4 x3815
<= 0

c_u_x3816_:
-1 x2845
+1 x2881
-62.4 x3817
<= 0

c_u_x3818_:
-1 x2845
+1 x2883
-62.4 x3819
<= 0

c_u_x3820_:
-1 x2
+1 x3693
+1 x3757
<= 1

c_u_x3821_:
-1 x3
+1 x3695
+1 x3759
<= 1

c_u_x3822_:
-1 x4
+1 x3697
+1 x3761
<= 1

c_u_x3823_:
-1 x5
+1 x3699
+1 x3763
<= 1

c_u_x3824_:
-1 x6
+1 x3701
+1 x3765
<= 1

c_u_x3825_:
-1 x7
+1 x3703
+1 x3767
<= 1

c_u_x3826_:
-1 x8
+1 x3705
+1 x3769
<= 1

c_u_x3827_:
-1 x9
+1 x3707
+1 x3771
<= 1

c_u_x3828_:
-1 x10
+1 x3709
+1 x3773
<= 1

c_u_x3829_:
-1 x11
+1 x3711
+1 x3775
<= 1

c_u_x3830_:
-1 x12
+1 x3713
+1 x3777
<= 1

c_u_x3831_:
-1 x13
+1 x3715
+1 x3779
<= 1

c_u_x3832_:
-1 x14
+1 x3717
+1 x3781
<= 1

c_u_x3833_:
-1 x15
+1 x3719
+1 x3783
<= 1

c_u_x3834_:
-1 x16
+1 x3721
+1 x3785
<= 1

c_u_x3835_:
-1 x17
+1 x3723
+1 x3787
<= 1

c_u_x3836_:
-1 x18
+1 x3725
+1 x3789
<= 1

c_u_x3837_:
-1 x19
+1 x3727
+1 x3791
<= 1

c_u_x3838_:
-1 x20
+1 x3729
+1 x3793
<= 1

c_u_x3839_:
-1 x21
+1 x3731
+1 x3795
<= 1

c_u_x3840_:
-1 x22
+1 x3733
+1 x3797
<= 1

c_u_x3841_:
-1 x23
+1 x3735
+1 x3799
<= 1

c_u_x3842_:
-1 x24
+1 x3737
+1 x3801
<= 1

c_u_x3843_:
-1 x25
+1 x3739
+1 x3803
<= 1

c_u_x3844_:
-1 x26
+1 x3741
+1 x3805
<= 1

c_u_x3845_:
-1 x27
+1 x3743
+1 x3807
<= 1

c_u_x3846_:
-1 x28
+1 x3745
+1 x3809
<= 1

c_u_x3847_:
-1 x29
+1 x3747
+1 x3811
<= 1

c_u_x3848_:
-1 x30
+1 x3749
+1 x3813
<= 1

c_u_x3849_:
-1 x31
+1 x3751
+1 x3815
<= 1

c_u_x3850_:
-1 x32
+1 x3753
+1 x3817
<= 1

c_u_x3851_:
-1 x33
+1 x3755
+1 x3819
<= 1

c_u_x3852_:
-1 x39
+1 x3459
+1 x3497
<= 1

c_u_x3853_:
-1 x39
+1 x3461
+1 x3497
<= 1

c_u_x3854_:
-1 x39
+1 x3463
+1 x3497
<= 1

c_u_x3855_:
-1 x39
+1 x3457
+1 x3499
<= 1

c_u_x3856_:
-1 x39
+1 x3461
+1 x3499
<= 1

c_u_x3857_:
-1 x39
+1 x3463
+1 x3499
<= 1

c_u_x3858_:
-1 x39
+1 x3457
+1 x3501
<= 1

c_u_x3859_:
-1 x39
+1 x3459
+1 x3501
<= 1

c_u_x3860_:
-1 x39
+1 x3463
+1 x3501
<= 1

c_u_x3861_:
-1 x39
+1 x3457
+1 x3503
<= 1

c_u_x3862_:
-1 x39
+1 x3459
+1 x3503
<= 1

c_u_x3863_:
-1 x39
+1 x3461
+1 x3503
<= 1

c_u_x3864_:
-1 x44
+1 x3499
+1 x3537
<= 1

c_u_x3865_:
-1 x44
+1 x3501
+1 x3537
<= 1

c_u_x3866_:
-1 x44
+1 x3503
+1 x3537
<= 1

c_u_x3867_:
-1 x44
+1 x3497
+1 x3539
<= 1

c_u_x3868_:
-1 x44
+1 x3501
+1 x3539
<= 1

c_u_x3869_:
-1 x44
+1 x3503
+1 x3539
<= 1

c_u_x3870_:
-1 x44
+1 x3497
+1 x3541
<= 1

c_u_x3871_:
-1 x44
+1 x3499
+1 x3541
<= 1

c_u_x3872_:
-1 x44
+1 x3503
+1 x3541
<= 1

c_u_x3873_:
-1 x44
+1 x3497
+1 x3543
<= 1

c_u_x3874_:
-1 x44
+1 x3499
+1 x3543
<= 1

c_u_x3875_:
-1 x44
+1 x3501
+1 x3543
<= 1

c_u_x3876_:
-1 x49
+1 x3539
+1 x3577
<= 1

c_u_x3877_:
-1 x49
+1 x3541
+1 x3577
<= 1

c_u_x3878_:
-1 x49
+1 x3543
+1 x3577
<= 1

c_u_x3879_:
-1 x49
+1 x3537
+1 x3579
<= 1

c_u_x3880_:
-1 x49
+1 x3541
+1 x3579
<= 1

c_u_x3881_:
-1 x49
+1 x3543
+1 x3579
<= 1

c_u_x3882_:
-1 x49
+1 x3537
+1 x3581
<= 1

c_u_x3883_:
-1 x49
+1 x3539
+1 x3581
<= 1

c_u_x3884_:
-1 x49
+1 x3543
+1 x3581
<= 1

c_u_x3885_:
-1 x49
+1 x3537
+1 x3583
<= 1

c_u_x3886_:
-1 x49
+1 x3539
+1 x3583
<= 1

c_u_x3887_:
-1 x49
+1 x3541
+1 x3583
<= 1

c_u_x3888_:
-1 x40
+1 x3467
+1 x3505
<= 1

c_u_x3889_:
-1 x40
+1 x3469
+1 x3505
<= 1

c_u_x3890_:
-1 x40
+1 x3471
+1 x3505
<= 1

c_u_x3891_:
-1 x40
+1 x3465
+1 x3507
<= 1

c_u_x3892_:
-1 x40
+1 x3469
+1 x3507
<= 1

c_u_x3893_:
-1 x40
+1 x3471
+1 x3507
<= 1

c_u_x3894_:
-1 x40
+1 x3465
+1 x3509
<= 1

c_u_x3895_:
-1 x40
+1 x3467
+1 x3509
<= 1

c_u_x3896_:
-1 x40
+1 x3471
+1 x3509
<= 1

c_u_x3897_:
-1 x40
+1 x3465
+1 x3511
<= 1

c_u_x3898_:
-1 x40
+1 x3467
+1 x3511
<= 1

c_u_x3899_:
-1 x40
+1 x3469
+1 x3511
<= 1

c_u_x3900_:
-1 x45
+1 x3507
+1 x3545
<= 1

c_u_x3901_:
-1 x45
+1 x3509
+1 x3545
<= 1

c_u_x3902_:
-1 x45
+1 x3511
+1 x3545
<= 1

c_u_x3903_:
-1 x45
+1 x3505
+1 x3547
<= 1

c_u_x3904_:
-1 x45
+1 x3509
+1 x3547
<= 1

c_u_x3905_:
-1 x45
+1 x3511
+1 x3547
<= 1

c_u_x3906_:
-1 x45
+1 x3505
+1 x3549
<= 1

c_u_x3907_:
-1 x45
+1 x3507
+1 x3549
<= 1

c_u_x3908_:
-1 x45
+1 x3511
+1 x3549
<= 1

c_u_x3909_:
-1 x45
+1 x3505
+1 x3551
<= 1

c_u_x3910_:
-1 x45
+1 x3507
+1 x3551
<= 1

c_u_x3911_:
-1 x45
+1 x3509
+1 x3551
<= 1

c_u_x3912_:
-1 x50
+1 x3547
+1 x3585
<= 1

c_u_x3913_:
-1 x50
+1 x3549
+1 x3585
<= 1

c_u_x3914_:
-1 x50
+1 x3551
+1 x3585
<= 1

c_u_x3915_:
-1 x50
+1 x3545
+1 x3587
<= 1

c_u_x3916_:
-1 x50
+1 x3549
+1 x3587
<= 1

c_u_x3917_:
-1 x50
+1 x3551
+1 x3587
<= 1

c_u_x3918_:
-1 x50
+1 x3545
+1 x3589
<= 1

c_u_x3919_:
-1 x50
+1 x3547
+1 x3589
<= 1

c_u_x3920_:
-1 x50
+1 x3551
+1 x3589
<= 1

c_u_x3921_:
-1 x50
+1 x3545
+1 x3591
<= 1

c_u_x3922_:
-1 x50
+1 x3547
+1 x3591
<= 1

c_u_x3923_:
-1 x50
+1 x3549
+1 x3591
<= 1

c_u_x3924_:
-1 x41
+1 x3475
+1 x3513
<= 1

c_u_x3925_:
-1 x41
+1 x3477
+1 x3513
<= 1

c_u_x3926_:
-1 x41
+1 x3479
+1 x3513
<= 1

c_u_x3927_:
-1 x41
+1 x3473
+1 x3515
<= 1

c_u_x3928_:
-1 x41
+1 x3477
+1 x3515
<= 1

c_u_x3929_:
-1 x41
+1 x3479
+1 x3515
<= 1

c_u_x3930_:
-1 x41
+1 x3473
+1 x3517
<= 1

c_u_x3931_:
-1 x41
+1 x3475
+1 x3517
<= 1

c_u_x3932_:
-1 x41
+1 x3479
+1 x3517
<= 1

c_u_x3933_:
-1 x41
+1 x3473
+1 x3519
<= 1

c_u_x3934_:
-1 x41
+1 x3475
+1 x3519
<= 1

c_u_x3935_:
-1 x41
+1 x3477
+1 x3519
<= 1

c_u_x3936_:
-1 x46
+1 x3515
+1 x3553
<= 1

c_u_x3937_:
-1 x46
+1 x3517
+1 x3553
<= 1

c_u_x3938_:
-1 x46
+1 x3519
+1 x3553
<= 1

c_u_x3939_:
-1 x46
+1 x3513
+1 x3555
<= 1

c_u_x3940_:
-1 x46
+1 x3517
+1 x3555
<= 1

c_u_x3941_:
-1 x46
+1 x3519
+1 x3555
<= 1

c_u_x3942_:
-1 x46
+1 x3513
+1 x3557
<= 1

c_u_x3943_:
-1 x46
+1 x3515
+1 x3557
<= 1

c_u_x3944_:
-1 x46
+1 x3519
+1 x3557
<= 1

c_u_x3945_:
-1 x46
+1 x3513
+1 x3559
<= 1

c_u_x3946_:
-1 x46
+1 x3515
+1 x3559
<= 1

c_u_x3947_:
-1 x46
+1 x3517
+1 x3559
<= 1

c_u_x3948_:
-1 x51
+1 x3555
+1 x3593
<= 1

c_u_x3949_:
-1 x51
+1 x3557
+1 x3593
<= 1

c_u_x3950_:
-1 x51
+1 x3559
+1 x3593
<= 1

c_u_x3951_:
-1 x51
+1 x3553
+1 x3595
<= 1

c_u_x3952_:
-1 x51
+1 x3557
+1 x3595
<= 1

c_u_x3953_:
-1 x51
+1 x3559
+1 x3595
<= 1

c_u_x3954_:
-1 x51
+1 x3553
+1 x3597
<= 1

c_u_x3955_:
-1 x51
+1 x3555
+1 x3597
<= 1

c_u_x3956_:
-1 x51
+1 x3559
+1 x3597
<= 1

c_u_x3957_:
-1 x51
+1 x3553
+1 x3599
<= 1

c_u_x3958_:
-1 x51
+1 x3555
+1 x3599
<= 1

c_u_x3959_:
-1 x51
+1 x3557
+1 x3599
<= 1

c_u_x3960_:
-1 x42
+1 x3483
+1 x3521
<= 1

c_u_x3961_:
-1 x42
+1 x3485
+1 x3521
<= 1

c_u_x3962_:
-1 x42
+1 x3487
+1 x3521
<= 1

c_u_x3963_:
-1 x42
+1 x3481
+1 x3523
<= 1

c_u_x3964_:
-1 x42
+1 x3485
+1 x3523
<= 1

c_u_x3965_:
-1 x42
+1 x3487
+1 x3523
<= 1

c_u_x3966_:
-1 x42
+1 x3481
+1 x3525
<= 1

c_u_x3967_:
-1 x42
+1 x3483
+1 x3525
<= 1

c_u_x3968_:
-1 x42
+1 x3487
+1 x3525
<= 1

c_u_x3969_:
-1 x42
+1 x3481
+1 x3527
<= 1

c_u_x3970_:
-1 x42
+1 x3483
+1 x3527
<= 1

c_u_x3971_:
-1 x42
+1 x3485
+1 x3527
<= 1

c_u_x3972_:
-1 x47
+1 x3523
+1 x3561
<= 1

c_u_x3973_:
-1 x47
+1 x3525
+1 x3561
<= 1

c_u_x3974_:
-1 x47
+1 x3527
+1 x3561
<= 1

c_u_x3975_:
-1 x47
+1 x3521
+1 x3563
<= 1

c_u_x3976_:
-1 x47
+1 x3525
+1 x3563
<= 1

c_u_x3977_:
-1 x47
+1 x3527
+1 x3563
<= 1

c_u_x3978_:
-1 x47
+1 x3521
+1 x3565
<= 1

c_u_x3979_:
-1 x47
+1 x3523
+1 x3565
<= 1

c_u_x3980_:
-1 x47
+1 x3527
+1 x3565
<= 1

c_u_x3981_:
-1 x47
+1 x3521
+1 x3567
<= 1

c_u_x3982_:
-1 x47
+1 x3523
+1 x3567
<= 1

c_u_x3983_:
-1 x47
+1 x3525
+1 x3567
<= 1

c_u_x3984_:
-1 x52
+1 x3563
+1 x3601
<= 1

c_u_x3985_:
-1 x52
+1 x3565
+1 x3601
<= 1

c_u_x3986_:
-1 x52
+1 x3567
+1 x3601
<= 1

c_u_x3987_:
-1 x52
+1 x3561
+1 x3603
<= 1

c_u_x3988_:
-1 x52
+1 x3565
+1 x3603
<= 1

c_u_x3989_:
-1 x52
+1 x3567
+1 x3603
<= 1

c_u_x3990_:
-1 x52
+1 x3561
+1 x3605
<= 1

c_u_x3991_:
-1 x52
+1 x3563
+1 x3605
<= 1

c_u_x3992_:
-1 x52
+1 x3567
+1 x3605
<= 1

c_u_x3993_:
-1 x52
+1 x3561
+1 x3607
<= 1

c_u_x3994_:
-1 x52
+1 x3563
+1 x3607
<= 1

c_u_x3995_:
-1 x52
+1 x3565
+1 x3607
<= 1

c_u_x3996_:
-1 x43
+1 x3491
+1 x3529
<= 1

c_u_x3997_:
-1 x43
+1 x3493
+1 x3529
<= 1

c_u_x3998_:
-1 x43
+1 x3495
+1 x3529
<= 1

c_u_x3999_:
-1 x43
+1 x3489
+1 x3531
<= 1

c_u_x4000_:
-1 x43
+1 x3493
+1 x3531
<= 1

c_u_x4001_:
-1 x43
+1 x3495
+1 x3531
<= 1

c_u_x4002_:
-1 x43
+1 x3489
+1 x3533
<= 1

c_u_x4003_:
-1 x43
+1 x3491
+1 x3533
<= 1

c_u_x4004_:
-1 x43
+1 x3495
+1 x3533
<= 1

c_u_x4005_:
-1 x43
+1 x3489
+1 x3535
<= 1

c_u_x4006_:
-1 x43
+1 x3491
+1 x3535
<= 1

c_u_x4007_:
-1 x43
+1 x3493
+1 x3535
<= 1

c_u_x4008_:
-1 x48
+1 x3531
+1 x3569
<= 1

c_u_x4009_:
-1 x48
+1 x3533
+1 x3569
<= 1

c_u_x4010_:
-1 x48
+1 x3535
+1 x3569
<= 1

c_u_x4011_:
-1 x48
+1 x3529
+1 x3571
<= 1

c_u_x4012_:
-1 x48
+1 x3533
+1 x3571
<= 1

c_u_x4013_:
-1 x48
+1 x3535
+1 x3571
<= 1

c_u_x4014_:
-1 x48
+1 x3529
+1 x3573
<= 1

c_u_x4015_:
-1 x48
+1 x3531
+1 x3573
<= 1

c_u_x4016_:
-1 x48
+1 x3535
+1 x3573
<= 1

c_u_x4017_:
-1 x48
+1 x3529
+1 x3575
<= 1

c_u_x4018_:
-1 x48
+1 x3531
+1 x3575
<= 1

c_u_x4019_:
-1 x48
+1 x3533
+1 x3575
<= 1

c_u_x4020_:
-1 x53
+1 x3571
+1 x3609
<= 1

c_u_x4021_:
-1 x53
+1 x3573
+1 x3609
<= 1

c_u_x4022_:
-1 x53
+1 x3575
+1 x3609
<= 1

c_u_x4023_:
-1 x53
+1 x3569
+1 x3611
<= 1

c_u_x4024_:
-1 x53
+1 x3573
+1 x3611
<= 1

c_u_x4025_:
-1 x53
+1 x3575
+1 x3611
<= 1

c_u_x4026_:
-1 x53
+1 x3569
+1 x3613
<= 1

c_u_x4027_:
-1 x53
+1 x3571
+1 x3613
<= 1

c_u_x4028_:
-1 x53
+1 x3575
+1 x3613
<= 1

c_u_x4029_:
-1 x53
+1 x3569
+1 x3615
<= 1

c_u_x4030_:
-1 x53
+1 x3571
+1 x3615
<= 1

c_u_x4031_:
-1 x53
+1 x3573
+1 x3615
<= 1

c_u_x4032_:
+1 x105
+1 x196
-1 x3697
-1 x3761
<= 1

c_u_x4033_:
+1 x106
+1 x197
-1 x3697
-1 x3761
<= 1

c_u_x4034_:
+1 x107
+1 x198
-1 x3697
-1 x3761
<= 1

c_u_x4035_:
+1 x108
+1 x199
-1 x3697
-1 x3761
<= 1

c_u_x4036_:
+1 x109
+1 x200
-1 x3697
-1 x3761
<= 1

c_u_x4037_:
+1 x110
+1 x201
-1 x3697
-1 x3761
<= 1

c_u_x4038_:
+1 x111
+1 x202
-1 x3697
-1 x3761
<= 1

c_u_x4039_:
+1 x112
+1 x203
-1 x3697
-1 x3761
<= 1

c_u_x4040_:
+1 x113
+1 x204
-1 x3697
-1 x3761
<= 1

c_u_x4041_:
+1 x114
+1 x205
-1 x3697
-1 x3761
<= 1

c_u_x4042_:
+1 x115
+1 x206
-1 x3697
-1 x3761
<= 1

c_u_x4043_:
+1 x116
+1 x207
-1 x3697
-1 x3761
<= 1

c_u_x4044_:
+1 x118
+1 x196
-1 x3699
-1 x3763
<= 1

c_u_x4045_:
+1 x119
+1 x197
-1 x3699
-1 x3763
<= 1

c_u_x4046_:
+1 x120
+1 x198
-1 x3699
-1 x3763
<= 1

c_u_x4047_:
+1 x121
+1 x199
-1 x3699
-1 x3763
<= 1

c_u_x4048_:
+1 x122
+1 x200
-1 x3699
-1 x3763
<= 1

c_u_x4049_:
+1 x123
+1 x201
-1 x3699
-1 x3763
<= 1

c_u_x4050_:
+1 x124
+1 x202
-1 x3699
-1 x3763
<= 1

c_u_x4051_:
+1 x125
+1 x203
-1 x3699
-1 x3763
<= 1

c_u_x4052_:
+1 x126
+1 x204
-1 x3699
-1 x3763
<= 1

c_u_x4053_:
+1 x127
+1 x205
-1 x3699
-1 x3763
<= 1

c_u_x4054_:
+1 x128
+1 x206
-1 x3699
-1 x3763
<= 1

c_u_x4055_:
+1 x129
+1 x207
-1 x3699
-1 x3763
<= 1

c_u_x4056_:
+1 x105
+1 x261
-1 x3701
-1 x3765
<= 1

c_u_x4057_:
+1 x106
+1 x262
-1 x3701
-1 x3765
<= 1

c_u_x4058_:
+1 x107
+1 x263
-1 x3701
-1 x3765
<= 1

c_u_x4059_:
+1 x108
+1 x264
-1 x3701
-1 x3765
<= 1

c_u_x4060_:
+1 x109
+1 x265
-1 x3701
-1 x3765
<= 1

c_u_x4061_:
+1 x110
+1 x266
-1 x3701
-1 x3765
<= 1

c_u_x4062_:
+1 x111
+1 x267
-1 x3701
-1 x3765
<= 1

c_u_x4063_:
+1 x112
+1 x268
-1 x3701
-1 x3765
<= 1

c_u_x4064_:
+1 x113
+1 x269
-1 x3701
-1 x3765
<= 1

c_u_x4065_:
+1 x114
+1 x270
-1 x3701
-1 x3765
<= 1

c_u_x4066_:
+1 x115
+1 x271
-1 x3701
-1 x3765
<= 1

c_u_x4067_:
+1 x116
+1 x272
-1 x3701
-1 x3765
<= 1

c_u_x4068_:
+1 x118
+1 x261
-1 x3703
-1 x3767
<= 1

c_u_x4069_:
+1 x119
+1 x262
-1 x3703
-1 x3767
<= 1

c_u_x4070_:
+1 x120
+1 x263
-1 x3703
-1 x3767
<= 1

c_u_x4071_:
+1 x121
+1 x264
-1 x3703
-1 x3767
<= 1

c_u_x4072_:
+1 x122
+1 x265
-1 x3703
-1 x3767
<= 1

c_u_x4073_:
+1 x123
+1 x266
-1 x3703
-1 x3767
<= 1

c_u_x4074_:
+1 x124
+1 x267
-1 x3703
-1 x3767
<= 1

c_u_x4075_:
+1 x125
+1 x268
-1 x3703
-1 x3767
<= 1

c_u_x4076_:
+1 x126
+1 x269
-1 x3703
-1 x3767
<= 1

c_u_x4077_:
+1 x127
+1 x270
-1 x3703
-1 x3767
<= 1

c_u_x4078_:
+1 x128
+1 x271
-1 x3703
-1 x3767
<= 1

c_u_x4079_:
+1 x129
+1 x272
-1 x3703
-1 x3767
<= 1

c_u_x4080_:
+1 x105
+1 x326
-1 x3705
-1 x3769
<= 1

c_u_x4081_:
+1 x106
+1 x327
-1 x3705
-1 x3769
<= 1

c_u_x4082_:
+1 x107
+1 x328
-1 x3705
-1 x3769
<= 1

c_u_x4083_:
+1 x108
+1 x329
-1 x3705
-1 x3769
<= 1

c_u_x4084_:
+1 x109
+1 x330
-1 x3705
-1 x3769
<= 1

c_u_x4085_:
+1 x110
+1 x331
-1 x3705
-1 x3769
<= 1

c_u_x4086_:
+1 x111
+1 x332
-1 x3705
-1 x3769
<= 1

c_u_x4087_:
+1 x112
+1 x333
-1 x3705
-1 x3769
<= 1

c_u_x4088_:
+1 x113
+1 x334
-1 x3705
-1 x3769
<= 1

c_u_x4089_:
+1 x114
+1 x335
-1 x3705
-1 x3769
<= 1

c_u_x4090_:
+1 x115
+1 x336
-1 x3705
-1 x3769
<= 1

c_u_x4091_:
+1 x116
+1 x337
-1 x3705
-1 x3769
<= 1

c_u_x4092_:
+1 x118
+1 x326
-1 x3707
-1 x3771
<= 1

c_u_x4093_:
+1 x119
+1 x327
-1 x3707
-1 x3771
<= 1

c_u_x4094_:
+1 x120
+1 x328
-1 x3707
-1 x3771
<= 1

c_u_x4095_:
+1 x121
+1 x329
-1 x3707
-1 x3771
<= 1

c_u_x4096_:
+1 x122
+1 x330
-1 x3707
-1 x3771
<= 1

c_u_x4097_:
+1 x123
+1 x331
-1 x3707
-1 x3771
<= 1

c_u_x4098_:
+1 x124
+1 x332
-1 x3707
-1 x3771
<= 1

c_u_x4099_:
+1 x125
+1 x333
-1 x3707
-1 x3771
<= 1

c_u_x4100_:
+1 x126
+1 x334
-1 x3707
-1 x3771
<= 1

c_u_x4101_:
+1 x127
+1 x335
-1 x3707
-1 x3771
<= 1

c_u_x4102_:
+1 x128
+1 x336
-1 x3707
-1 x3771
<= 1

c_u_x4103_:
+1 x129
+1 x337
-1 x3707
-1 x3771
<= 1

c_u_x4104_:
+1 x131
+1 x170
-1 x3709
-1 x3773
<= 1

c_u_x4105_:
+1 x132
+1 x171
-1 x3709
-1 x3773
<= 1

c_u_x4106_:
+1 x133
+1 x172
-1 x3709
-1 x3773
<= 1

c_u_x4107_:
+1 x134
+1 x173
-1 x3709
-1 x3773
<= 1

c_u_x4108_:
+1 x135
+1 x174
-1 x3709
-1 x3773
<= 1

c_u_x4109_:
+1 x136
+1 x175
-1 x3709
-1 x3773
<= 1

c_u_x4110_:
+1 x137
+1 x176
-1 x3709
-1 x3773
<= 1

c_u_x4111_:
+1 x138
+1 x177
-1 x3709
-1 x3773
<= 1

c_u_x4112_:
+1 x139
+1 x178
-1 x3709
-1 x3773
<= 1

c_u_x4113_:
+1 x140
+1 x179
-1 x3709
-1 x3773
<= 1

c_u_x4114_:
+1 x141
+1 x180
-1 x3709
-1 x3773
<= 1

c_u_x4115_:
+1 x142
+1 x181
-1 x3709
-1 x3773
<= 1

c_u_x4116_:
+1 x131
+1 x183
-1 x3711
-1 x3775
<= 1

c_u_x4117_:
+1 x132
+1 x184
-1 x3711
-1 x3775
<= 1

c_u_x4118_:
+1 x133
+1 x185
-1 x3711
-1 x3775
<= 1

c_u_x4119_:
+1 x134
+1 x186
-1 x3711
-1 x3775
<= 1

c_u_x4120_:
+1 x135
+1 x187
-1 x3711
-1 x3775
<= 1

c_u_x4121_:
+1 x136
+1 x188
-1 x3711
-1 x3775
<= 1

c_u_x4122_:
+1 x137
+1 x189
-1 x3711
-1 x3775
<= 1

c_u_x4123_:
+1 x138
+1 x190
-1 x3711
-1 x3775
<= 1

c_u_x4124_:
+1 x139
+1 x191
-1 x3711
-1 x3775
<= 1

c_u_x4125_:
+1 x140
+1 x192
-1 x3711
-1 x3775
<= 1

c_u_x4126_:
+1 x141
+1 x193
-1 x3711
-1 x3775
<= 1

c_u_x4127_:
+1 x142
+1 x194
-1 x3711
-1 x3775
<= 1

c_u_x4128_:
+1 x170
+1 x261
-1 x3717
-1 x3781
<= 1

c_u_x4129_:
+1 x171
+1 x262
-1 x3717
-1 x3781
<= 1

c_u_x4130_:
+1 x172
+1 x263
-1 x3717
-1 x3781
<= 1

c_u_x4131_:
+1 x173
+1 x264
-1 x3717
-1 x3781
<= 1

c_u_x4132_:
+1 x174
+1 x265
-1 x3717
-1 x3781
<= 1

c_u_x4133_:
+1 x175
+1 x266
-1 x3717
-1 x3781
<= 1

c_u_x4134_:
+1 x176
+1 x267
-1 x3717
-1 x3781
<= 1

c_u_x4135_:
+1 x177
+1 x268
-1 x3717
-1 x3781
<= 1

c_u_x4136_:
+1 x178
+1 x269
-1 x3717
-1 x3781
<= 1

c_u_x4137_:
+1 x179
+1 x270
-1 x3717
-1 x3781
<= 1

c_u_x4138_:
+1 x180
+1 x271
-1 x3717
-1 x3781
<= 1

c_u_x4139_:
+1 x181
+1 x272
-1 x3717
-1 x3781
<= 1

c_u_x4140_:
+1 x183
+1 x261
-1 x3719
-1 x3783
<= 1

c_u_x4141_:
+1 x184
+1 x262
-1 x3719
-1 x3783
<= 1

c_u_x4142_:
+1 x185
+1 x263
-1 x3719
-1 x3783
<= 1

c_u_x4143_:
+1 x186
+1 x264
-1 x3719
-1 x3783
<= 1

c_u_x4144_:
+1 x187
+1 x265
-1 x3719
-1 x3783
<= 1

c_u_x4145_:
+1 x188
+1 x266
-1 x3719
-1 x3783
<= 1

c_u_x4146_:
+1 x189
+1 x267
-1 x3719
-1 x3783
<= 1

c_u_x4147_:
+1 x190
+1 x268
-1 x3719
-1 x3783
<= 1

c_u_x4148_:
+1 x191
+1 x269
-1 x3719
-1 x3783
<= 1

c_u_x4149_:
+1 x192
+1 x270
-1 x3719
-1 x3783
<= 1

c_u_x4150_:
+1 x193
+1 x271
-1 x3719
-1 x3783
<= 1

c_u_x4151_:
+1 x194
+1 x272
-1 x3719
-1 x3783
<= 1

c_u_x4152_:
+1 x170
+1 x326
-1 x3721
-1 x3785
<= 1

c_u_x4153_:
+1 x171
+1 x327
-1 x3721
-1 x3785
<= 1

c_u_x4154_:
+1 x172
+1 x328
-1 x3721
-1 x3785
<= 1

c_u_x4155_:
+1 x173
+1 x329
-1 x3721
-1 x3785
<= 1

c_u_x4156_:
+1 x174
+1 x330
-1 x3721
-1 x3785
<= 1

c_u_x4157_:
+1 x175
+1 x331
-1 x3721
-1 x3785
<= 1

c_u_x4158_:
+1 x176
+1 x332
-1 x3721
-1 x3785
<= 1

c_u_x4159_:
+1 x177
+1 x333
-1 x3721
-1 x3785
<= 1

c_u_x4160_:
+1 x178
+1 x334
-1 x3721
-1 x3785
<= 1

c_u_x4161_:
+1 x179
+1 x335
-1 x3721
-1 x3785
<= 1

c_u_x4162_:
+1 x180
+1 x336
-1 x3721
-1 x3785
<= 1

c_u_x4163_:
+1 x181
+1 x337
-1 x3721
-1 x3785
<= 1

c_u_x4164_:
+1 x183
+1 x326
-1 x3723
-1 x3787
<= 1

c_u_x4165_:
+1 x184
+1 x327
-1 x3723
-1 x3787
<= 1

c_u_x4166_:
+1 x185
+1 x328
-1 x3723
-1 x3787
<= 1

c_u_x4167_:
+1 x186
+1 x329
-1 x3723
-1 x3787
<= 1

c_u_x4168_:
+1 x187
+1 x330
-1 x3723
-1 x3787
<= 1

c_u_x4169_:
+1 x188
+1 x331
-1 x3723
-1 x3787
<= 1

c_u_x4170_:
+1 x189
+1 x332
-1 x3723
-1 x3787
<= 1

c_u_x4171_:
+1 x190
+1 x333
-1 x3723
-1 x3787
<= 1

c_u_x4172_:
+1 x191
+1 x334
-1 x3723
-1 x3787
<= 1

c_u_x4173_:
+1 x192
+1 x335
-1 x3723
-1 x3787
<= 1

c_u_x4174_:
+1 x193
+1 x336
-1 x3723
-1 x3787
<= 1

c_u_x4175_:
+1 x194
+1 x337
-1 x3723
-1 x3787
<= 1

c_u_x4176_:
+1 x131
+1 x235
-1 x3725
-1 x3789
<= 1

c_u_x4177_:
+1 x132
+1 x236
-1 x3725
-1 x3789
<= 1

c_u_x4178_:
+1 x133
+1 x237
-1 x3725
-1 x3789
<= 1

c_u_x4179_:
+1 x134
+1 x238
-1 x3725
-1 x3789
<= 1

c_u_x4180_:
+1 x135
+1 x239
-1 x3725
-1 x3789
<= 1

c_u_x4181_:
+1 x136
+1 x240
-1 x3725
-1 x3789
<= 1

c_u_x4182_:
+1 x137
+1 x241
-1 x3725
-1 x3789
<= 1

c_u_x4183_:
+1 x138
+1 x242
-1 x3725
-1 x3789
<= 1

c_u_x4184_:
+1 x139
+1 x243
-1 x3725
-1 x3789
<= 1

c_u_x4185_:
+1 x140
+1 x244
-1 x3725
-1 x3789
<= 1

c_u_x4186_:
+1 x141
+1 x245
-1 x3725
-1 x3789
<= 1

c_u_x4187_:
+1 x142
+1 x246
-1 x3725
-1 x3789
<= 1

c_u_x4188_:
+1 x131
+1 x248
-1 x3727
-1 x3791
<= 1

c_u_x4189_:
+1 x132
+1 x249
-1 x3727
-1 x3791
<= 1

c_u_x4190_:
+1 x133
+1 x250
-1 x3727
-1 x3791
<= 1

c_u_x4191_:
+1 x134
+1 x251
-1 x3727
-1 x3791
<= 1

c_u_x4192_:
+1 x135
+1 x252
-1 x3727
-1 x3791
<= 1

c_u_x4193_:
+1 x136
+1 x253
-1 x3727
-1 x3791
<= 1

c_u_x4194_:
+1 x137
+1 x254
-1 x3727
-1 x3791
<= 1

c_u_x4195_:
+1 x138
+1 x255
-1 x3727
-1 x3791
<= 1

c_u_x4196_:
+1 x139
+1 x256
-1 x3727
-1 x3791
<= 1

c_u_x4197_:
+1 x140
+1 x257
-1 x3727
-1 x3791
<= 1

c_u_x4198_:
+1 x141
+1 x258
-1 x3727
-1 x3791
<= 1

c_u_x4199_:
+1 x142
+1 x259
-1 x3727
-1 x3791
<= 1

c_u_x4200_:
+1 x196
+1 x235
-1 x3729
-1 x3793
<= 1

c_u_x4201_:
+1 x197
+1 x236
-1 x3729
-1 x3793
<= 1

c_u_x4202_:
+1 x198
+1 x237
-1 x3729
-1 x3793
<= 1

c_u_x4203_:
+1 x199
+1 x238
-1 x3729
-1 x3793
<= 1

c_u_x4204_:
+1 x200
+1 x239
-1 x3729
-1 x3793
<= 1

c_u_x4205_:
+1 x201
+1 x240
-1 x3729
-1 x3793
<= 1

c_u_x4206_:
+1 x202
+1 x241
-1 x3729
-1 x3793
<= 1

c_u_x4207_:
+1 x203
+1 x242
-1 x3729
-1 x3793
<= 1

c_u_x4208_:
+1 x204
+1 x243
-1 x3729
-1 x3793
<= 1

c_u_x4209_:
+1 x205
+1 x244
-1 x3729
-1 x3793
<= 1

c_u_x4210_:
+1 x206
+1 x245
-1 x3729
-1 x3793
<= 1

c_u_x4211_:
+1 x207
+1 x246
-1 x3729
-1 x3793
<= 1

c_u_x4212_:
+1 x196
+1 x248
-1 x3731
-1 x3795
<= 1

c_u_x4213_:
+1 x197
+1 x249
-1 x3731
-1 x3795
<= 1

c_u_x4214_:
+1 x198
+1 x250
-1 x3731
-1 x3795
<= 1

c_u_x4215_:
+1 x199
+1 x251
-1 x3731
-1 x3795
<= 1

c_u_x4216_:
+1 x200
+1 x252
-1 x3731
-1 x3795
<= 1

c_u_x4217_:
+1 x201
+1 x253
-1 x3731
-1 x3795
<= 1

c_u_x4218_:
+1 x202
+1 x254
-1 x3731
-1 x3795
<= 1

c_u_x4219_:
+1 x203
+1 x255
-1 x3731
-1 x3795
<= 1

c_u_x4220_:
+1 x204
+1 x256
-1 x3731
-1 x3795
<= 1

c_u_x4221_:
+1 x205
+1 x257
-1 x3731
-1 x3795
<= 1

c_u_x4222_:
+1 x206
+1 x258
-1 x3731
-1 x3795
<= 1

c_u_x4223_:
+1 x207
+1 x259
-1 x3731
-1 x3795
<= 1

c_u_x4224_:
+1 x235
+1 x326
-1 x3737
-1 x3801
<= 1

c_u_x4225_:
+1 x236
+1 x327
-1 x3737
-1 x3801
<= 1

c_u_x4226_:
+1 x237
+1 x328
-1 x3737
-1 x3801
<= 1

c_u_x4227_:
+1 x238
+1 x329
-1 x3737
-1 x3801
<= 1

c_u_x4228_:
+1 x239
+1 x330
-1 x3737
-1 x3801
<= 1

c_u_x4229_:
+1 x240
+1 x331
-1 x3737
-1 x3801
<= 1

c_u_x4230_:
+1 x241
+1 x332
-1 x3737
-1 x3801
<= 1

c_u_x4231_:
+1 x242
+1 x333
-1 x3737
-1 x3801
<= 1

c_u_x4232_:
+1 x243
+1 x334
-1 x3737
-1 x3801
<= 1

c_u_x4233_:
+1 x244
+1 x335
-1 x3737
-1 x3801
<= 1

c_u_x4234_:
+1 x245
+1 x336
-1 x3737
-1 x3801
<= 1

c_u_x4235_:
+1 x246
+1 x337
-1 x3737
-1 x3801
<= 1

c_u_x4236_:
+1 x248
+1 x326
-1 x3739
-1 x3803
<= 1

c_u_x4237_:
+1 x249
+1 x327
-1 x3739
-1 x3803
<= 1

c_u_x4238_:
+1 x250
+1 x328
-1 x3739
-1 x3803
<= 1

c_u_x4239_:
+1 x251
+1 x329
-1 x3739
-1 x3803
<= 1

c_u_x4240_:
+1 x252
+1 x330
-1 x3739
-1 x3803
<= 1

c_u_x4241_:
+1 x253
+1 x331
-1 x3739
-1 x3803
<= 1

c_u_x4242_:
+1 x254
+1 x332
-1 x3739
-1 x3803
<= 1

c_u_x4243_:
+1 x255
+1 x333
-1 x3739
-1 x3803
<= 1

c_u_x4244_:
+1 x256
+1 x334
-1 x3739
-1 x3803
<= 1

c_u_x4245_:
+1 x257
+1 x335
-1 x3739
-1 x3803
<= 1

c_u_x4246_:
+1 x258
+1 x336
-1 x3739
-1 x3803
<= 1

c_u_x4247_:
+1 x259
+1 x337
-1 x3739
-1 x3803
<= 1

c_u_x4248_:
+1 x131
+1 x300
-1 x3741
-1 x3805
<= 1

c_u_x4249_:
+1 x132
+1 x301
-1 x3741
-1 x3805
<= 1

c_u_x4250_:
+1 x133
+1 x302
-1 x3741
-1 x3805
<= 1

c_u_x4251_:
+1 x134
+1 x303
-1 x3741
-1 x3805
<= 1

c_u_x4252_:
+1 x135
+1 x304
-1 x3741
-1 x3805
<= 1

c_u_x4253_:
+1 x136
+1 x305
-1 x3741
-1 x3805
<= 1

c_u_x4254_:
+1 x137
+1 x306
-1 x3741
-1 x3805
<= 1

c_u_x4255_:
+1 x138
+1 x307
-1 x3741
-1 x3805
<= 1

c_u_x4256_:
+1 x139
+1 x308
-1 x3741
-1 x3805
<= 1

c_u_x4257_:
+1 x140
+1 x309
-1 x3741
-1 x3805
<= 1

c_u_x4258_:
+1 x141
+1 x310
-1 x3741
-1 x3805
<= 1

c_u_x4259_:
+1 x142
+1 x311
-1 x3741
-1 x3805
<= 1

c_u_x4260_:
+1 x131
+1 x313
-1 x3743
-1 x3807
<= 1

c_u_x4261_:
+1 x132
+1 x314
-1 x3743
-1 x3807
<= 1

c_u_x4262_:
+1 x133
+1 x315
-1 x3743
-1 x3807
<= 1

c_u_x4263_:
+1 x134
+1 x316
-1 x3743
-1 x3807
<= 1

c_u_x4264_:
+1 x135
+1 x317
-1 x3743
-1 x3807
<= 1

c_u_x4265_:
+1 x136
+1 x318
-1 x3743
-1 x3807
<= 1

c_u_x4266_:
+1 x137
+1 x319
-1 x3743
-1 x3807
<= 1

c_u_x4267_:
+1 x138
+1 x320
-1 x3743
-1 x3807
<= 1

c_u_x4268_:
+1 x139
+1 x321
-1 x3743
-1 x3807
<= 1

c_u_x4269_:
+1 x140
+1 x322
-1 x3743
-1 x3807
<= 1

c_u_x4270_:
+1 x141
+1 x323
-1 x3743
-1 x3807
<= 1

c_u_x4271_:
+1 x142
+1 x324
-1 x3743
-1 x3807
<= 1

c_u_x4272_:
+1 x196
+1 x300
-1 x3745
-1 x3809
<= 1

c_u_x4273_:
+1 x197
+1 x301
-1 x3745
-1 x3809
<= 1

c_u_x4274_:
+1 x198
+1 x302
-1 x3745
-1 x3809
<= 1

c_u_x4275_:
+1 x199
+1 x303
-1 x3745
-1 x3809
<= 1

c_u_x4276_:
+1 x200
+1 x304
-1 x3745
-1 x3809
<= 1

c_u_x4277_:
+1 x201
+1 x305
-1 x3745
-1 x3809
<= 1

c_u_x4278_:
+1 x202
+1 x306
-1 x3745
-1 x3809
<= 1

c_u_x4279_:
+1 x203
+1 x307
-1 x3745
-1 x3809
<= 1

c_u_x4280_:
+1 x204
+1 x308
-1 x3745
-1 x3809
<= 1

c_u_x4281_:
+1 x205
+1 x309
-1 x3745
-1 x3809
<= 1

c_u_x4282_:
+1 x206
+1 x310
-1 x3745
-1 x3809
<= 1

c_u_x4283_:
+1 x207
+1 x311
-1 x3745
-1 x3809
<= 1

c_u_x4284_:
+1 x196
+1 x313
-1 x3747
-1 x3811
<= 1

c_u_x4285_:
+1 x197
+1 x314
-1 x3747
-1 x3811
<= 1

c_u_x4286_:
+1 x198
+1 x315
-1 x3747
-1 x3811
<= 1

c_u_x4287_:
+1 x199
+1 x316
-1 x3747
-1 x3811
<= 1

c_u_x4288_:
+1 x200
+1 x317
-1 x3747
-1 x3811
<= 1

c_u_x4289_:
+1 x201
+1 x318
-1 x3747
-1 x3811
<= 1

c_u_x4290_:
+1 x202
+1 x319
-1 x3747
-1 x3811
<= 1

c_u_x4291_:
+1 x203
+1 x320
-1 x3747
-1 x3811
<= 1

c_u_x4292_:
+1 x204
+1 x321
-1 x3747
-1 x3811
<= 1

c_u_x4293_:
+1 x205
+1 x322
-1 x3747
-1 x3811
<= 1

c_u_x4294_:
+1 x206
+1 x323
-1 x3747
-1 x3811
<= 1

c_u_x4295_:
+1 x207
+1 x324
-1 x3747
-1 x3811
<= 1

c_u_x4296_:
+1 x261
+1 x300
-1 x3749
-1 x3813
<= 1

c_u_x4297_:
+1 x262
+1 x301
-1 x3749
-1 x3813
<= 1

c_u_x4298_:
+1 x263
+1 x302
-1 x3749
-1 x3813
<= 1

c_u_x4299_:
+1 x264
+1 x303
-1 x3749
-1 x3813
<= 1

c_u_x4300_:
+1 x265
+1 x304
-1 x3749
-1 x3813
<= 1

c_u_x4301_:
+1 x266
+1 x305
-1 x3749
-1 x3813
<= 1

c_u_x4302_:
+1 x267
+1 x306
-1 x3749
-1 x3813
<= 1

c_u_x4303_:
+1 x268
+1 x307
-1 x3749
-1 x3813
<= 1

c_u_x4304_:
+1 x269
+1 x308
-1 x3749
-1 x3813
<= 1

c_u_x4305_:
+1 x270
+1 x309
-1 x3749
-1 x3813
<= 1

c_u_x4306_:
+1 x271
+1 x310
-1 x3749
-1 x3813
<= 1

c_u_x4307_:
+1 x272
+1 x311
-1 x3749
-1 x3813
<= 1

c_u_x4308_:
+1 x261
+1 x313
-1 x3751
-1 x3815
<= 1

c_u_x4309_:
+1 x262
+1 x314
-1 x3751
-1 x3815
<= 1

c_u_x4310_:
+1 x263
+1 x315
-1 x3751
-1 x3815
<= 1

c_u_x4311_:
+1 x264
+1 x316
-1 x3751
-1 x3815
<= 1

c_u_x4312_:
+1 x265
+1 x317
-1 x3751
-1 x3815
<= 1

c_u_x4313_:
+1 x266
+1 x318
-1 x3751
-1 x3815
<= 1

c_u_x4314_:
+1 x267
+1 x319
-1 x3751
-1 x3815
<= 1

c_u_x4315_:
+1 x268
+1 x320
-1 x3751
-1 x3815
<= 1

c_u_x4316_:
+1 x269
+1 x321
-1 x3751
-1 x3815
<= 1

c_u_x4317_:
+1 x270
+1 x322
-1 x3751
-1 x3815
<= 1

c_u_x4318_:
+1 x271
+1 x323
-1 x3751
-1 x3815
<= 1

c_u_x4319_:
+1 x272
+1 x324
-1 x3751
-1 x3815
<= 1

bounds
   0 <= x2 <= 1
   0 <= x3 <= 1
   0 <= x4 <= 1
   0 <= x5 <= 1
   0 <= x6 <= 1
   0 <= x7 <= 1
   0 <= x8 <= 1
   0 <= x9 <= 1
   0 <= x10 <= 1
   0 <= x11 <= 1
   0 <= x12 <= 1
   0 <= x13 <= 1
   0 <= x14 <= 1
   0 <= x15 <= 1
   0 <= x16 <= 1
   0 <= x17 <= 1
   0 <= x18 <= 1
   0 <= x19 <= 1
   0 <= x20 <= 1
   0 <= x21 <= 1
   0 <= x22 <= 1
   0 <= x23 <= 1
   0 <= x24 <= 1
   0 <= x25 <= 1
   0 <= x26 <= 1
   0 <= x27 <= 1
   0 <= x28 <= 1
   0 <= x29 <= 1
   0 <= x30 <= 1
   0 <= x31 <= 1
   0 <= x32 <= 1
   0 <= x33 <= 1
   0 <= x34 <= 1
   0 <= x35 <= 1
   0 <= x36 <= 1
   0 <= x37 <= 1
   0 <= x38 <= 1
   0 <= x39 <= 1
   0 <= x40 <= 1
   0 <= x41 <= 1
   0 <= x42 <= 1
   0 <= x43 <= 1
   0 <= x44 <= 1
   0 <= x45 <= 1
   0 <= x46 <= 1
   0 <= x47 <= 1
   0 <= x48 <= 1
   0 <= x49 <= 1
   0 <= x50 <= 1
   0 <= x51 <= 1
   0 <= x52 <= 1
   0 <= x53 <= 1
   0 <= x54 <= 1
   0 <= x55 <= 1
   0 <= x56 <= 1
   0 <= x57 <= 1
   0 <= x58 <= 1
   0 <= x59 <= 1
   0 <= x60 <= 1
   0 <= x61 <= 1
   0 <= x62 <= 1
   0 <= x63 <= 1
   0 <= x64 <= 1
   0 <= x65 <= 1
   0 <= x66 <= 1
   0 <= x67 <= 1
   0 <= x68 <= 1
   0 <= x69 <= 1
   0 <= x70 <= 1
   0 <= x71 <= 1
   0 <= x72 <= 1
   0 <= x73 <= 1
   0 <= x74 <= +inf
   0 <= x75 <= +inf
   0 <= x76 <= +inf
   0 <= x77 <= +inf
   0 <= x79 <= 1
   0 <= x80 <= 1
   0 <= x81 <= 1
   0 <= x82 <= 1
   0 <= x83 <= 1
   0 <= x84 <= 1
   0 <= x85 <= 1
   0 <= x86 <= 1
   0 <= x87 <= 1
   0 <= x88 <= 1
   0 <= x89 <= 1
   0 <= x90 <= 1
   0 <= x92 <= 1
   0 <= x93 <= 1
   0 <= x94 <= 1
   0 <= x95 <= 1
   0 <= x96 <= 1
   0 <= x97 <= 1
   0 <= x98 <= 1
   0 <= x99 <= 1
   0 <= x100 <= 1
   0 <= x101 <= 1
   0 <= x102 <= 1
   0 <= x103 <= 1
   0 <= x105 <= 1
   0 <= x106 <= 1
   0 <= x107 <= 1
   0 <= x108 <= 1
   0 <= x109 <= 1
   0 <= x110 <= 1
   0 <= x111 <= 1
   0 <= x112 <= 1
   0 <= x113 <= 1
   0 <= x114 <= 1
   0 <= x115 <= 1
   0 <= x116 <= 1
   0 <= x118 <= 1
   0 <= x119 <= 1
   0 <= x120 <= 1
   0 <= x121 <= 1
   0 <= x122 <= 1
   0 <= x123 <= 1
   0 <= x124 <= 1
   0 <= x125 <= 1
   0 <= x126 <= 1
   0 <= x127 <= 1
   0 <= x128 <= 1
   0 <= x129 <= 1
   0 <= x131 <= 1
   0 <= x132 <= 1
   0 <= x133 <= 1
   0 <= x134 <= 1
   0 <= x135 <= 1
   0 <= x136 <= 1
   0 <= x137 <= 1
   0 <= x138 <= 1
   0 <= x139 <= 1
   0 <= x140 <= 1
   0 <= x141 <= 1
   0 <= x142 <= 1
   0 <= x144 <= 1
   0 <= x145 <= 1
   0 <= x146 <= 1
   0 <= x147 <= 1
   0 <= x148 <= 1
   0 <= x149 <= 1
   0 <= x150 <= 1
   0 <= x151 <= 1
   0 <= x152 <= 1
   0 <= x153 <= 1
   0 <= x154 <= 1
   0 <= x155 <= 1
   0 <= x157 <= 1
   0 <= x158 <= 1
   0 <= x159 <= 1
   0 <= x160 <= 1
   0 <= x161 <= 1
   0 <= x162 <= 1
   0 <= x163 <= 1
   0 <= x164 <= 1
   0 <= x165 <= 1
   0 <= x166 <= 1
   0 <= x167 <= 1
   0 <= x168 <= 1
   0 <= x170 <= 1
   0 <= x171 <= 1
   0 <= x172 <= 1
   0 <= x173 <= 1
   0 <= x174 <= 1
   0 <= x175 <= 1
   0 <= x176 <= 1
   0 <= x177 <= 1
   0 <= x178 <= 1
   0 <= x179 <= 1
   0 <= x180 <= 1
   0 <= x181 <= 1
   0 <= x183 <= 1
   0 <= x184 <= 1
   0 <= x185 <= 1
   0 <= x186 <= 1
   0 <= x187 <= 1
   0 <= x188 <= 1
   0 <= x189 <= 1
   0 <= x190 <= 1
   0 <= x191 <= 1
   0 <= x192 <= 1
   0 <= x193 <= 1
   0 <= x194 <= 1
   0 <= x196 <= 1
   0 <= x197 <= 1
   0 <= x198 <= 1
   0 <= x199 <= 1
   0 <= x200 <= 1
   0 <= x201 <= 1
   0 <= x202 <= 1
   0 <= x203 <= 1
   0 <= x204 <= 1
   0 <= x205 <= 1
   0 <= x206 <= 1
   0 <= x207 <= 1
   0 <= x209 <= 1
   0 <= x210 <= 1
   0 <= x211 <= 1
   0 <= x212 <= 1
   0 <= x213 <= 1
   0 <= x214 <= 1
   0 <= x215 <= 1
   0 <= x216 <= 1
   0 <= x217 <= 1
   0 <= x218 <= 1
   0 <= x219 <= 1
   0 <= x220 <= 1
   0 <= x222 <= 1
   0 <= x223 <= 1
   0 <= x224 <= 1
   0 <= x225 <= 1
   0 <= x226 <= 1
   0 <= x227 <= 1
   0 <= x228 <= 1
   0 <= x229 <= 1
   0 <= x230 <= 1
   0 <= x231 <= 1
   0 <= x232 <= 1
   0 <= x233 <= 1
   0 <= x235 <= 1
   0 <= x236 <= 1
   0 <= x237 <= 1
   0 <= x238 <= 1
   0 <= x239 <= 1
   0 <= x240 <= 1
   0 <= x241 <= 1
   0 <= x242 <= 1
   0 <= x243 <= 1
   0 <= x244 <= 1
   0 <= x245 <= 1
   0 <= x246 <= 1
   0 <= x248 <= 1
   0 <= x249 <= 1
   0 <= x250 <= 1
   0 <= x251 <= 1
   0 <= x252 <= 1
   0 <= x253 <= 1
   0 <= x254 <= 1
   0 <= x255 <= 1
   0 <= x256 <= 1
   0 <= x257 <= 1
   0 <= x258 <= 1
   0 <= x259 <= 1
   0 <= x261 <= 1
   0 <= x262 <= 1
   0 <= x263 <= 1
   0 <= x264 <= 1
   0 <= x265 <= 1
   0 <= x266 <= 1
   0 <= x267 <= 1
   0 <= x268 <= 1
   0 <= x269 <= 1
   0 <= x270 <= 1
   0 <= x271 <= 1
   0 <= x272 <= 1
   0 <= x274 <= 1
   0 <= x275 <= 1
   0 <= x276 <= 1
   0 <= x277 <= 1
   0 <= x278 <= 1
   0 <= x279 <= 1
   0 <= x280 <= 1
   0 <= x281 <= 1
   0 <= x282 <= 1
   0 <= x283 <= 1
   0 <= x284 <= 1
   0 <= x285 <= 1
   0 <= x287 <= 1
   0 <= x288 <= 1
   0 <= x289 <= 1
   0 <= x290 <= 1
   0 <= x291 <= 1
   0 <= x292 <= 1
   0 <= x293 <= 1
   0 <= x294 <= 1
   0 <= x295 <= 1
   0 <= x296 <= 1
   0 <= x297 <= 1
   0 <= x298 <= 1
   0 <= x300 <= 1
   0 <= x301 <= 1
   0 <= x302 <= 1
   0 <= x303 <= 1
   0 <= x304 <= 1
   0 <= x305 <= 1
   0 <= x306 <= 1
   0 <= x307 <= 1
   0 <= x308 <= 1
   0 <= x309 <= 1
   0 <= x310 <= 1
   0 <= x311 <= 1
   0 <= x313 <= 1
   0 <= x314 <= 1
   0 <= x315 <= 1
   0 <= x316 <= 1
   0 <= x317 <= 1
   0 <= x318 <= 1
   0 <= x319 <= 1
   0 <= x320 <= 1
   0 <= x321 <= 1
   0 <= x322 <= 1
   0 <= x323 <= 1
   0 <= x324 <= 1
   0 <= x326 <= 1
   0 <= x327 <= 1
   0 <= x328 <= 1
   0 <= x329 <= 1
   0 <= x330 <= 1
   0 <= x331 <= 1
   0 <= x332 <= 1
   0 <= x333 <= 1
   0 <= x334 <= 1
   0 <= x335 <= 1
   0 <= x336 <= 1
   0 <= x337 <= 1
   0 <= x339 <= +inf
   0 <= x343 <= +inf
   0 <= x347 <= +inf
   0 <= x351 <= +inf
   0 <= x355 <= +inf
   0 <= x359 <= +inf
   0 <= x363 <= +inf
   0 <= x367 <= +inf
   0 <= x371 <= +inf
   0 <= x375 <= +inf
   0 <= x379 <= +inf
   0 <= x383 <= +inf
   0 <= x387 <= +inf
   0 <= x391 <= +inf
   0 <= x395 <= +inf
   0 <= x399 <= +inf
   0 <= x403 <= +inf
   0 <= x407 <= +inf
   0 <= x411 <= +inf
   0 <= x415 <= +inf
   0 <= x419 <= +inf
   0 <= x423 <= +inf
   0 <= x427 <= +inf
   0 <= x431 <= +inf
   0 <= x435 <= +inf
   0 <= x439 <= +inf
   0 <= x443 <= +inf
   0 <= x447 <= +inf
   0 <= x451 <= +inf
   0 <= x455 <= +inf
   0 <= x459 <= +inf
   0 <= x463 <= +inf
   0 <= x467 <= +inf
   0 <= x471 <= +inf
   0 <= x475 <= +inf
   0 <= x479 <= +inf
   0 <= x483 <= +inf
   0 <= x487 <= +inf
   0 <= x491 <= +inf
   0 <= x495 <= +inf
   0 <= x499 <= +inf
   0 <= x503 <= +inf
   0 <= x507 <= +inf
   0 <= x511 <= +inf
   0 <= x515 <= +inf
   0 <= x519 <= +inf
   0 <= x523 <= +inf
   0 <= x527 <= +inf
   0 <= x531 <= +inf
   0 <= x535 <= +inf
   0 <= x539 <= +inf
   0 <= x543 <= +inf
   0 <= x547 <= +inf
   0 <= x551 <= +inf
   0 <= x555 <= +inf
   0 <= x559 <= +inf
   0 <= x563 <= +inf
   0 <= x567 <= +inf
   0 <= x571 <= +inf
   0 <= x575 <= +inf
   0 <= x579 <= +inf
   0 <= x583 <= +inf
   0 <= x587 <= +inf
   0 <= x591 <= +inf
   0 <= x595 <= +inf
   0 <= x599 <= +inf
   0 <= x603 <= +inf
   0 <= x607 <= +inf
   0 <= x611 <= +inf
   0 <= x615 <= +inf
   0 <= x619 <= +inf
   0 <= x623 <= +inf
   0 <= x627 <= +inf
   0 <= x631 <= +inf
   0 <= x635 <= +inf
   0 <= x639 <= +inf
   0 <= x643 <= +inf
   0 <= x647 <= +inf
   0 <= x651 <= +inf
   0 <= x655 <= +inf
   0 <= x659 <= +inf
   0 <= x663 <= +inf
   0 <= x667 <= +inf
   0 <= x671 <= +inf
   0 <= x675 <= +inf
   0 <= x679 <= +inf
   0 <= x683 <= +inf
   0 <= x687 <= +inf
   0 <= x691 <= +inf
   0 <= x695 <= +inf
   0 <= x699 <= +inf
   0 <= x703 <= +inf
   0 <= x707 <= +inf
   0 <= x711 <= +inf
   0 <= x715 <= +inf
   0 <= x719 <= +inf
   0 <= x723 <= +inf
   0 <= x727 <= +inf
   0 <= x731 <= +inf
   0 <= x735 <= +inf
   0 <= x739 <= +inf
   0 <= x743 <= +inf
   0 <= x747 <= +inf
   0 <= x751 <= +inf
   0 <= x755 <= +inf
   0 <= x759 <= +inf
   0 <= x763 <= +inf
   0 <= x767 <= +inf
   0 <= x771 <= +inf
   0 <= x775 <= +inf
   0 <= x779 <= +inf
   0 <= x783 <= +inf
   0 <= x787 <= +inf
   0 <= x791 <= +inf
   0 <= x795 <= +inf
   0 <= x799 <= +inf
   0 <= x803 <= +inf
   0 <= x807 <= +inf
   0 <= x811 <= +inf
   0 <= x815 <= +inf
   0 <= x819 <= +inf
   0 <= x823 <= +inf
   0 <= x827 <= +inf
   0 <= x831 <= +inf
   0 <= x835 <= +inf
   0 <= x839 <= +inf
   0 <= x843 <= +inf
   0 <= x847 <= +inf
   0 <= x851 <= +inf
   0 <= x855 <= +inf
   0 <= x859 <= +inf
   0 <= x863 <= +inf
   0 <= x867 <= +inf
   0 <= x871 <= +inf
   0 <= x875 <= +inf
   0 <= x879 <= +inf
   0 <= x883 <= +inf
   0 <= x887 <= +inf
   0 <= x891 <= +inf
   0 <= x895 <= +inf
   0 <= x899 <= +inf
   0 <= x903 <= +inf
   0 <= x907 <= +inf
   0 <= x911 <= +inf
   0 <= x915 <= +inf
   0 <= x919 <= +inf
   0 <= x923 <= +inf
   0 <= x927 <= +inf
   0 <= x931 <= +inf
   0 <= x935 <= +inf
   0 <= x939 <= +inf
   0 <= x943 <= +inf
   0 <= x947 <= +inf
   0 <= x951 <= +inf
   0 <= x955 <= +inf
   0 <= x959 <= +inf
   0 <= x963 <= +inf
   0 <= x967 <= +inf
   0 <= x971 <= +inf
   0 <= x975 <= +inf
   0 <= x979 <= +inf
   0 <= x983 <= +inf
   0 <= x987 <= +inf
   0 <= x991 <= +inf
   0 <= x995 <= +inf
   0 <= x999 <= +inf
   0 <= x1003 <= +inf
   0 <= x1007 <= +inf
   0 <= x1011 <= +inf
   0 <= x1015 <= +inf
   0 <= x1019 <= +inf
   0 <= x1023 <= +inf
   0 <= x1027 <= +inf
   0 <= x1031 <= +inf
   0 <= x1035 <= +inf
   0 <= x1039 <= +inf
   0 <= x1043 <= +inf
   0 <= x1047 <= +inf
   0 <= x1051 <= +inf
   0 <= x1055 <= +inf
   0 <= x1059 <= +inf
   0 <= x1063 <= +inf
   0 <= x1067 <= +inf
   0 <= x1071 <= +inf
   0 <= x1075 <= +inf
   0 <= x1079 <= +inf
   0 <= x1083 <= +inf
   0 <= x1087 <= +inf
   0 <= x1091 <= +inf
   0 <= x1095 <= +inf
   0 <= x1099 <= +inf
   0 <= x1103 <= +inf
   0 <= x1107 <= +inf
   0 <= x1111 <= +inf
   0 <= x1115 <= +inf
   0 <= x1119 <= +inf
   0 <= x1123 <= +inf
   0 <= x1127 <= +inf
   0 <= x1131 <= +inf
   0 <= x1135 <= +inf
   0 <= x1139 <= +inf
   0 <= x1143 <= +inf
   0 <= x1147 <= +inf
   0 <= x1151 <= +inf
   0 <= x1155 <= +inf
   0 <= x1159 <= +inf
   0 <= x1163 <= +inf
   0 <= x1167 <= +inf
   0 <= x1171 <= +inf
   0 <= x1175 <= +inf
   0 <= x1179 <= +inf
   0 <= x1183 <= +inf
   0 <= x1187 <= +inf
   0 <= x1191 <= +inf
   0 <= x1195 <= +inf
   0 <= x1199 <= +inf
   0 <= x1203 <= +inf
   0 <= x1207 <= +inf
   0 <= x1211 <= +inf
   0 <= x1215 <= +inf
   0 <= x1219 <= +inf
   0 <= x1223 <= +inf
   0 <= x1227 <= +inf
   0 <= x1231 <= +inf
   0 <= x1235 <= +inf
   0 <= x1239 <= +inf
   0 <= x1243 <= +inf
   0 <= x1247 <= +inf
   0 <= x1251 <= +inf
   0 <= x1255 <= +inf
   0 <= x1259 <= +inf
   0 <= x1263 <= +inf
   0 <= x1267 <= +inf
   0 <= x1271 <= +inf
   0 <= x1275 <= +inf
   0 <= x1279 <= +inf
   0 <= x1283 <= +inf
   0 <= x1287 <= +inf
   0 <= x1291 <= +inf
   0 <= x1295 <= +inf
   0 <= x340 <= +inf
   0 <= x344 <= +inf
   0 <= x348 <= +inf
   0 <= x352 <= +inf
   0 <= x356 <= +inf
   0 <= x360 <= +inf
   0 <= x364 <= +inf
   0 <= x368 <= +inf
   0 <= x372 <= +inf
   0 <= x376 <= +inf
   0 <= x380 <= +inf
   0 <= x384 <= +inf
   0 <= x388 <= +inf
   0 <= x392 <= +inf
   0 <= x396 <= +inf
   0 <= x400 <= +inf
   0 <= x404 <= +inf
   0 <= x408 <= +inf
   0 <= x412 <= +inf
   0 <= x416 <= +inf
   0 <= x420 <= +inf
   0 <= x424 <= +inf
   0 <= x428 <= +inf
   0 <= x432 <= +inf
   0 <= x436 <= +inf
   0 <= x440 <= +inf
   0 <= x444 <= +inf
   0 <= x448 <= +inf
   0 <= x452 <= +inf
   0 <= x456 <= +inf
   0 <= x460 <= +inf
   0 <= x464 <= +inf
   0 <= x468 <= +inf
   0 <= x472 <= +inf
   0 <= x476 <= +inf
   0 <= x480 <= +inf
   0 <= x484 <= +inf
   0 <= x488 <= +inf
   0 <= x492 <= +inf
   0 <= x496 <= +inf
   0 <= x500 <= +inf
   0 <= x504 <= +inf
   0 <= x508 <= +inf
   0 <= x512 <= +inf
   0 <= x516 <= +inf
   0 <= x520 <= +inf
   0 <= x524 <= +inf
   0 <= x528 <= +inf
   0 <= x532 <= +inf
   0 <= x536 <= +inf
   0 <= x540 <= +inf
   0 <= x544 <= +inf
   0 <= x548 <= +inf
   0 <= x552 <= +inf
   0 <= x556 <= +inf
   0 <= x560 <= +inf
   0 <= x564 <= +inf
   0 <= x568 <= +inf
   0 <= x572 <= +inf
   0 <= x576 <= +inf
   0 <= x580 <= +inf
   0 <= x584 <= +inf
   0 <= x588 <= +inf
   0 <= x592 <= +inf
   0 <= x596 <= +inf
   0 <= x600 <= +inf
   0 <= x604 <= +inf
   0 <= x608 <= +inf
   0 <= x612 <= +inf
   0 <= x616 <= +inf
   0 <= x620 <= +inf
   0 <= x624 <= +inf
   0 <= x628 <= +inf
   0 <= x632 <= +inf
   0 <= x636 <= +inf
   0 <= x640 <= +inf
   0 <= x644 <= +inf
   0 <= x648 <= +inf
   0 <= x652 <= +inf
   0 <= x656 <= +inf
   0 <= x660 <= +inf
   0 <= x664 <= +inf
   0 <= x668 <= +inf
   0 <= x672 <= +inf
   0 <= x676 <= +inf
   0 <= x680 <= +inf
   0 <= x684 <= +inf
   0 <= x688 <= +inf
   0 <= x692 <= +inf
   0 <= x696 <= +inf
   0 <= x700 <= +inf
   0 <= x704 <= +inf
   0 <= x708 <= +inf
   0 <= x712 <= +inf
   0 <= x716 <= +inf
   0 <= x720 <= +inf
   0 <= x724 <= +inf
   0 <= x728 <= +inf
   0 <= x732 <= +inf
   0 <= x736 <= +inf
   0 <= x740 <= +inf
   0 <= x744 <= +inf
   0 <= x748 <= +inf
   0 <= x752 <= +inf
   0 <= x756 <= +inf
   0 <= x760 <= +inf
   0 <= x764 <= +inf
   0 <= x768 <= +inf
   0 <= x772 <= +inf
   0 <= x776 <= +inf
   0 <= x780 <= +inf
   0 <= x784 <= +inf
   0 <= x788 <= +inf
   0 <= x792 <= +inf
   0 <= x796 <= +inf
   0 <= x800 <= +inf
   0 <= x804 <= +inf
   0 <= x808 <= +inf
   0 <= x812 <= +inf
   0 <= x816 <= +inf
   0 <= x820 <= +inf
   0 <= x824 <= +inf
   0 <= x828 <= +inf
   0 <= x832 <= +inf
   0 <= x836 <= +inf
   0 <= x840 <= +inf
   0 <= x844 <= +inf
   0 <= x848 <= +inf
   0 <= x852 <= +inf
   0 <= x856 <= +inf
   0 <= x860 <= +inf
   0 <= x864 <= +inf
   0 <= x868 <= +inf
   0 <= x872 <= +inf
   0 <= x876 <= +inf
   0 <= x880 <= +inf
   0 <= x884 <= +inf
   0 <= x888 <= +inf
   0 <= x892 <= +inf
   0 <= x896 <= +inf
   0 <= x900 <= +inf
   0 <= x904 <= +inf
   0 <= x908 <= +inf
   0 <= x912 <= +inf
   0 <= x916 <= +inf
   0 <= x920 <= +inf
   0 <= x924 <= +inf
   0 <= x928 <= +inf
   0 <= x932 <= +inf
   0 <= x936 <= +inf
   0 <= x940 <= +inf
   0 <= x944 <= +inf
   0 <= x948 <= +inf
   0 <= x952 <= +inf
   0 <= x956 <= +inf
   0 <= x960 <= +inf
   0 <= x964 <= +inf
   0 <= x968 <= +inf
   0 <= x972 <= +inf
   0 <= x976 <= +inf
   0 <= x980 <= +inf
   0 <= x984 <= +inf
   0 <= x988 <= +inf
   0 <= x992 <= +inf
   0 <= x996 <= +inf
   0 <= x1000 <= +inf
   0 <= x1004 <= +inf
   0 <= x1008 <= +inf
   0 <= x1012 <= +inf
   0 <= x1016 <= +inf
   0 <= x1020 <= +inf
   0 <= x1024 <= +inf
   0 <= x1028 <= +inf
   0 <= x1032 <= +inf
   0 <= x1036 <= +inf
   0 <= x1040 <= +inf
   0 <= x1044 <= +inf
   0 <= x1048 <= +inf
   0 <= x1052 <= +inf
   0 <= x1056 <= +inf
   0 <= x1060 <= +inf
   0 <= x1064 <= +inf
   0 <= x1068 <= +inf
   0 <= x1072 <= +inf
   0 <= x1076 <= +inf
   0 <= x1080 <= +inf
   0 <= x1084 <= +inf
   0 <= x1088 <= +inf
   0 <= x1092 <= +inf
   0 <= x1096 <= +inf
   0 <= x1100 <= +inf
   0 <= x1104 <= +inf
   0 <= x1108 <= +inf
   0 <= x1112 <= +inf
   0 <= x1116 <= +inf
   0 <= x1120 <= +inf
   0 <= x1124 <= +inf
   0 <= x1128 <= +inf
   0 <= x1132 <= +inf
   0 <= x1136 <= +inf
   0 <= x1140 <= +inf
   0 <= x1144 <= +inf
   0 <= x1148 <= +inf
   0 <= x1152 <= +inf
   0 <= x1156 <= +inf
   0 <= x1160 <= +inf
   0 <= x1164 <= +inf
   0 <= x1168 <= +inf
   0 <= x1172 <= +inf
   0 <= x1176 <= +inf
   0 <= x1180 <= +inf
   0 <= x1184 <= +inf
   0 <= x1188 <= +inf
   0 <= x1192 <= +inf
   0 <= x1196 <= +inf
   0 <= x1200 <= +inf
   0 <= x1204 <= +inf
   0 <= x1208 <= +inf
   0 <= x1212 <= +inf
   0 <= x1216 <= +inf
   0 <= x1220 <= +inf
   0 <= x1224 <= +inf
   0 <= x1228 <= +inf
   0 <= x1232 <= +inf
   0 <= x1236 <= +inf
   0 <= x1240 <= +inf
   0 <= x1244 <= +inf
   0 <= x1248 <= +inf
   0 <= x1252 <= +inf
   0 <= x1256 <= +inf
   0 <= x1260 <= +inf
   0 <= x1264 <= +inf
   0 <= x1268 <= +inf
   0 <= x1272 <= +inf
   0 <= x1276 <= +inf
   0 <= x1280 <= +inf
   0 <= x1284 <= +inf
   0 <= x1288 <= +inf
   0 <= x1292 <= +inf
   0 <= x1296 <= +inf
   0 <= x341 <= +inf
   0 <= x345 <= +inf
   0 <= x349 <= +inf
   0 <= x353 <= +inf
   0 <= x357 <= +inf
   0 <= x361 <= +inf
   0 <= x365 <= +inf
   0 <= x369 <= +inf
   0 <= x373 <= +inf
   0 <= x377 <= +inf
   0 <= x381 <= +inf
   0 <= x385 <= +inf
   0 <= x389 <= +inf
   0 <= x393 <= +inf
   0 <= x397 <= +inf
   0 <= x401 <= +inf
   0 <= x405 <= +inf
   0 <= x409 <= +inf
   0 <= x413 <= +inf
   0 <= x417 <= +inf
   0 <= x421 <= +inf
   0 <= x425 <= +inf
   0 <= x429 <= +inf
   0 <= x433 <= +inf
   0 <= x437 <= +inf
   0 <= x441 <= +inf
   0 <= x445 <= +inf
   0 <= x449 <= +inf
   0 <= x453 <= +inf
   0 <= x457 <= +inf
   0 <= x461 <= +inf
   0 <= x465 <= +inf
   0 <= x469 <= +inf
   0 <= x473 <= +inf
   0 <= x477 <= +inf
   0 <= x481 <= +inf
   0 <= x485 <= +inf
   0 <= x489 <= +inf
   0 <= x493 <= +inf
   0 <= x497 <= +inf
   0 <= x501 <= +inf
   0 <= x505 <= +inf
   0 <= x509 <= +inf
   0 <= x513 <= +inf
   0 <= x517 <= +inf
   0 <= x521 <= +inf
   0 <= x525 <= +inf
   0 <= x529 <= +inf
   0 <= x533 <= +inf
   0 <= x537 <= +inf
   0 <= x541 <= +inf
   0 <= x545 <= +inf
   0 <= x549 <= +inf
   0 <= x553 <= +inf
   0 <= x557 <= +inf
   0 <= x561 <= +inf
   0 <= x565 <= +inf
   0 <= x569 <= +inf
   0 <= x573 <= +inf
   0 <= x577 <= +inf
   0 <= x581 <= +inf
   0 <= x585 <= +inf
   0 <= x589 <= +inf
   0 <= x593 <= +inf
   0 <= x597 <= +inf
   0 <= x601 <= +inf
   0 <= x605 <= +inf
   0 <= x609 <= +inf
   0 <= x613 <= +inf
   0 <= x617 <= +inf
   0 <= x621 <= +inf
   0 <= x625 <= +inf
   0 <= x629 <= +inf
   0 <= x633 <= +inf
   0 <= x637 <= +inf
   0 <= x641 <= +inf
   0 <= x645 <= +inf
   0 <= x649 <= +inf
   0 <= x653 <= +inf
   0 <= x657 <= +inf
   0 <= x661 <= +inf
   0 <= x665 <= +inf
   0 <= x669 <= +inf
   0 <= x673 <= +inf
   0 <= x677 <= +inf
   0 <= x681 <= +inf
   0 <= x685 <= +inf
   0 <= x689 <= +inf
   0 <= x693 <= +inf
   0 <= x697 <= +inf
   0 <= x701 <= +inf
   0 <= x705 <= +inf
   0 <= x709 <= +inf
   0 <= x713 <= +inf
   0 <= x717 <= +inf
   0 <= x721 <= +inf
   0 <= x725 <= +inf
   0 <= x729 <= +inf
   0 <= x733 <= +inf
   0 <= x737 <= +inf
   0 <= x741 <= +inf
   0 <= x745 <= +inf
   0 <= x749 <= +inf
   0 <= x753 <= +inf
   0 <= x757 <= +inf
   0 <= x761 <= +inf
   0 <= x765 <= +inf
   0 <= x769 <= +inf
   0 <= x773 <= +inf
   0 <= x777 <= +inf
   0 <= x781 <= +inf
   0 <= x785 <= +inf
   0 <= x789 <= +inf
   0 <= x793 <= +inf
   0 <= x797 <= +inf
   0 <= x801 <= +inf
   0 <= x805 <= +inf
   0 <= x809 <= +inf
   0 <= x813 <= +inf
   0 <= x817 <= +inf
   0 <= x821 <= +inf
   0 <= x825 <= +inf
   0 <= x829 <= +inf
   0 <= x833 <= +inf
   0 <= x837 <= +inf
   0 <= x841 <= +inf
   0 <= x845 <= +inf
   0 <= x849 <= +inf
   0 <= x853 <= +inf
   0 <= x857 <= +inf
   0 <= x861 <= +inf
   0 <= x865 <= +inf
   0 <= x869 <= +inf
   0 <= x873 <= +inf
   0 <= x877 <= +inf
   0 <= x881 <= +inf
   0 <= x885 <= +inf
   0 <= x889 <= +inf
   0 <= x893 <= +inf
   0 <= x897 <= +inf
   0 <= x901 <= +inf
   0 <= x905 <= +inf
   0 <= x909 <= +inf
   0 <= x913 <= +inf
   0 <= x917 <= +inf
   0 <= x921 <= +inf
   0 <= x925 <= +inf
   0 <= x929 <= +inf
   0 <= x933 <= +inf
   0 <= x937 <= +inf
   0 <= x941 <= +inf
   0 <= x945 <= +inf
   0 <= x949 <= +inf
   0 <= x953 <= +inf
   0 <= x957 <= +inf
   0 <= x961 <= +inf
   0 <= x965 <= +inf
   0 <= x969 <= +inf
   0 <= x973 <= +inf
   0 <= x977 <= +inf
   0 <= x981 <= +inf
   0 <= x985 <= +inf
   0 <= x989 <= +inf
   0 <= x993 <= +inf
   0 <= x997 <= +inf
   0 <= x1001 <= +inf
   0 <= x1005 <= +inf
   0 <= x1009 <= +inf
   0 <= x1013 <= +inf
   0 <= x1017 <= +inf
   0 <= x1021 <= +inf
   0 <= x1025 <= +inf
   0 <= x1029 <= +inf
   0 <= x1033 <= +inf
   0 <= x1037 <= +inf
   0 <= x1041 <= +inf
   0 <= x1045 <= +inf
   0 <= x1049 <= +inf
   0 <= x1053 <= +inf
   0 <= x1057 <= +inf
   0 <= x1061 <= +inf
   0 <= x1065 <= +inf
   0 <= x1069 <= +inf
   0 <= x1073 <= +inf
   0 <= x1077 <= +inf
   0 <= x1081 <= +inf
   0 <= x1085 <= +inf
   0 <= x1089 <= +inf
   0 <= x1093 <= +inf
   0 <= x1097 <= +inf
   0 <= x1101 <= +inf
   0 <= x1105 <= +inf
   0 <= x1109 <= +inf
   0 <= x1113 <= +inf
   0 <= x1117 <= +inf
   0 <= x1121 <= +inf
   0 <= x1125 <= +inf
   0 <= x1129 <= +inf
   0 <= x1133 <= +inf
   0 <= x1137 <= +inf
   0 <= x1141 <= +inf
   0 <= x1145 <= +inf
   0 <= x1149 <= +inf
   0 <= x1153 <= +inf
   0 <= x1157 <= +inf
   0 <= x1161 <= +inf
   0 <= x1165 <= +inf
   0 <= x1169 <= +inf
   0 <= x1173 <= +inf
   0 <= x1177 <= +inf
   0 <= x1181 <= +inf
   0 <= x1185 <= +inf
   0 <= x1189 <= +inf
   0 <= x1193 <= +inf
   0 <= x1197 <= +inf
   0 <= x1201 <= +inf
   0 <= x1205 <= +inf
   0 <= x1209 <= +inf
   0 <= x1213 <= +inf
   0 <= x1217 <= +inf
   0 <= x1221 <= +inf
   0 <= x1225 <= +inf
   0 <= x1229 <= +inf
   0 <= x1233 <= +inf
   0 <= x1237 <= +inf
   0 <= x1241 <= +inf
   0 <= x1245 <= +inf
   0 <= x1249 <= +inf
   0 <= x1253 <= +inf
   0 <= x1257 <= +inf
   0 <= x1261 <= +inf
   0 <= x1265 <= +inf
   0 <= x1269 <= +inf
   0 <= x1273 <= +inf
   0 <= x1277 <= +inf
   0 <= x1281 <= +inf
   0 <= x1285 <= +inf
   0 <= x1289 <= +inf
   0 <= x1293 <= +inf
   0 <= x1297 <= +inf
   0 <= x1791 <= +inf
   0 <= x1793 <= +inf
   0 <= x1795 <= +inf
   0 <= x1797 <= +inf
   0 <= x1799 <= +inf
   0 <= x1801 <= +inf
   0 <= x1803 <= +inf
   0 <= x1805 <= +inf
   0 <= x1807 <= +inf
   0 <= x1809 <= +inf
   0 <= x1811 <= +inf
   0 <= x1813 <= +inf
   0 <= x2283 <= +inf
   0 <= x2285 <= +inf
   0 <= x2287 <= +inf
   0 <= x2289 <= +inf
   0 <= x2291 <= +inf
   0 <= x2293 <= +inf
   0 <= x2295 <= +inf
   0 <= x2297 <= +inf
   0 <= x2299 <= +inf
   0 <= x2301 <= +inf
   0 <= x2303 <= +inf
   0 <= x2305 <= +inf
   0 <= x2787 <= +inf
   0 <= x2789 <= +inf
   0 <= x2791 <= +inf
   0 <= x2793 <= +inf
   0 <= x2799 <= 1
   0 <= x2801 <= 1
   0 <= x2803 <= 1
   0 <= x2805 <= 1
   0 <= x2807 <= +inf
   0 <= x2809 <= +inf
   0 <= x2811 <= +inf
   0 <= x2813 <= +inf
   0 <= x2815 <= +inf
   0 <= x2817 <= +inf
   0 <= x2819 <= +inf
   0 <= x2821 <= +inf
   0 <= x2823 <= +inf
   0 <= x2825 <= +inf
   0 <= x2827 <= +inf
   0 <= x2829 <= +inf
   0 <= x2831 <= +inf
   0 <= x2833 <= +inf
   0 <= x2835 <= +inf
   0 <= x2837 <= +inf
   0 <= x2839 <= +inf
   0 <= x2841 <= +inf
   0 <= x2843 <= +inf
   0 <= x2845 <= +inf
   0 <= x2847 <= +inf
   0 <= x2849 <= +inf
   0 <= x2851 <= +inf
   0 <= x2853 <= +inf
   0 <= x2855 <= +inf
   0 <= x2857 <= +inf
   0 <= x2859 <= +inf
   0 <= x2861 <= +inf
   0 <= x2863 <= +inf
   0 <= x2865 <= +inf
   0 <= x2867 <= +inf
   0 <= x2869 <= +inf
   0 <= x2871 <= +inf
   0 <= x2873 <= +inf
   0 <= x2875 <= +inf
   0 <= x2877 <= +inf
   0 <= x2879 <= +inf
   0 <= x2881 <= +inf
   0 <= x2883 <= +inf
   0 <= x2885 <= +inf
   0 <= x3177 <= +inf
   0 <= x3179 <= +inf
   0 <= x3181 <= +inf
   0 <= x3183 <= +inf
   0 <= x3185 <= +inf
   0 <= x3187 <= +inf
   0 <= x3189 <= +inf
   0 <= x3191 <= +inf
   0 <= x3193 <= +inf
   0 <= x3195 <= +inf
   0 <= x3197 <= +inf
   0 <= x3199 <= +inf
   0 <= x3201 <= +inf
   0 <= x3203 <= +inf
   0 <= x3205 <= +inf
   0 <= x3207 <= +inf
   0 <= x3209 <= +inf
   0 <= x3211 <= +inf
   0 <= x3213 <= +inf
   0 <= x3215 <= +inf
   0 <= x3217 <= 1
   0 <= x3219 <= 1
   0 <= x3221 <= 1
   0 <= x3223 <= 1
   0 <= x3225 <= 1
   0 <= x3227 <= 1
   0 <= x3229 <= 1
   0 <= x3231 <= 1
   0 <= x3233 <= 1
   0 <= x3235 <= 1
   0 <= x3237 <= 1
   0 <= x3239 <= 1
   0 <= x3241 <= 1
   0 <= x3243 <= 1
   0 <= x3245 <= 1
   0 <= x3247 <= 1
   0 <= x3249 <= 1
   0 <= x3251 <= 1
   0 <= x3253 <= 1
   0 <= x3255 <= 1
   0 <= x3257 <= 1
   0 <= x3259 <= 1
   0 <= x3261 <= 1
   0 <= x3263 <= 1
   0 <= x3265 <= 1
   0 <= x3267 <= 1
   0 <= x3269 <= 1
   0 <= x3271 <= 1
   0 <= x3273 <= 1
   0 <= x3275 <= 1
   0 <= x3277 <= 1
   0 <= x3279 <= 1
   0 <= x3281 <= 1
   0 <= x3283 <= 1
   0 <= x3285 <= 1
   0 <= x3287 <= 1
   0 <= x3289 <= 1
   0 <= x3291 <= 1
   0 <= x3293 <= 1
   0 <= x3295 <= 1
   0 <= x3297 <= 1
   0 <= x3299 <= 1
   0 <= x3301 <= 1
   0 <= x3303 <= 1
   0 <= x3305 <= 1
   0 <= x3307 <= 1
   0 <= x3309 <= 1
   0 <= x3311 <= 1
   0 <= x3313 <= 1
   0 <= x3315 <= 1
   0 <= x3317 <= 1
   0 <= x3319 <= 1
   0 <= x3321 <= 1
   0 <= x3323 <= 1
   0 <= x3325 <= 1
   0 <= x3327 <= 1
   0 <= x3329 <= 1
   0 <= x3331 <= 1
   0 <= x3333 <= 1
   0 <= x3335 <= 1
   0 <= x3337 <= 1
   0 <= x3339 <= 1
   0 <= x3341 <= 1
   0 <= x3343 <= 1
   0 <= x3345 <= 1
   0 <= x3347 <= 1
   0 <= x3349 <= 1
   0 <= x3351 <= 1
   0 <= x3353 <= 1
   0 <= x3355 <= 1
   0 <= x3357 <= 1
   0 <= x3359 <= 1
   0 <= x3361 <= 1
   0 <= x3363 <= 1
   0 <= x3365 <= 1
   0 <= x3367 <= 1
   0 <= x3369 <= 1
   0 <= x3371 <= 1
   0 <= x3373 <= 1
   0 <= x3375 <= 1
   0 <= x3457 <= 1
   0 <= x3459 <= 1
   0 <= x3461 <= 1
   0 <= x3463 <= 1
   0 <= x3465 <= 1
   0 <= x3467 <= 1
   0 <= x3469 <= 1
   0 <= x3471 <= 1
   0 <= x3473 <= 1
   0 <= x3475 <= 1
   0 <= x3477 <= 1
   0 <= x3479 <= 1
   0 <= x3481 <= 1
   0 <= x3483 <= 1
   0 <= x3485 <= 1
   0 <= x3487 <= 1
   0 <= x3489 <= 1
   0 <= x3491 <= 1
   0 <= x3493 <= 1
   0 <= x3495 <= 1
   0 <= x3497 <= 1
   0 <= x3499 <= 1
   0 <= x3501 <= 1
   0 <= x3503 <= 1
   0 <= x3505 <= 1
   0 <= x3507 <= 1
   0 <= x3509 <= 1
   0 <= x3511 <= 1
   0 <= x3513 <= 1
   0 <= x3515 <= 1
   0 <= x3517 <= 1
   0 <= x3519 <= 1
   0 <= x3521 <= 1
   0 <= x3523 <= 1
   0 <= x3525 <= 1
   0 <= x3527 <= 1
   0 <= x3529 <= 1
   0 <= x3531 <= 1
   0 <= x3533 <= 1
   0 <= x3535 <= 1
   0 <= x3537 <= 1
   0 <= x3539 <= 1
   0 <= x3541 <= 1
   0 <= x3543 <= 1
   0 <= x3545 <= 1
   0 <= x3547 <= 1
   0 <= x3549 <= 1
   0 <= x3551 <= 1
   0 <= x3553 <= 1
   0 <= x3555 <= 1
   0 <= x3557 <= 1
   0 <= x3559 <= 1
   0 <= x3561 <= 1
   0 <= x3563 <= 1
   0 <= x3565 <= 1
   0 <= x3567 <= 1
   0 <= x3569 <= 1
   0 <= x3571 <= 1
   0 <= x3573 <= 1
   0 <= x3575 <= 1
   0 <= x3577 <= 1
   0 <= x3579 <= 1
   0 <= x3581 <= 1
   0 <= x3583 <= 1
   0 <= x3585 <= 1
   0 <= x3587 <= 1
   0 <= x3589 <= 1
   0 <= x3591 <= 1
   0 <= x3593 <= 1
   0 <= x3595 <= 1
   0 <= x3597 <= 1
   0 <= x3599 <= 1
   0 <= x3601 <= 1
   0 <= x3603 <= 1
   0 <= x3605 <= 1
   0 <= x3607 <= 1
   0 <= x3609 <= 1
   0 <= x3611 <= 1
   0 <= x3613 <= 1
   0 <= x3615 <= 1
   0 <= x3653 <= 1
   0 <= x3655 <= 1
   0 <= x3657 <= 1
   0 <= x3659 <= 1
   0 <= x3661 <= 1
   0 <= x3663 <= 1
   0 <= x3665 <= 1
   0 <= x3667 <= 1
   0 <= x3669 <= 1
   0 <= x3671 <= 1
   0 <= x3673 <= 1
   0 <= x3675 <= 1
   0 <= x3677 <= 1
   0 <= x3679 <= 1
   0 <= x3681 <= 1
   0 <= x3683 <= 1
   0 <= x3685 <= 1
   0 <= x3687 <= 1
   0 <= x3689 <= 1
   0 <= x3691 <= 1
   0 <= x3693 <= 1
   0 <= x3695 <= 1
   0 <= x3697 <= 1
   0 <= x3699 <= 1
   0 <= x3701 <= 1
   0 <= x3703 <= 1
   0 <= x3705 <= 1
   0 <= x3707 <= 1
   0 <= x3709 <= 1
   0 <= x3711 <= 1
   0 <= x3713 <= 1
   0 <= x3715 <= 1
   0 <= x3717 <= 1
   0 <= x3719 <= 1
   0 <= x3721 <= 1
   0 <= x3723 <= 1
   0 <= x3725 <= 1
   0 <= x3727 <= 1
   0 <= x3729 <= 1
   0 <= x3731 <= 1
   0 <= x3733 <= 1
   0 <= x3735 <= 1
   0 <= x3737 <= 1
   0 <= x3739 <= 1
   0 <= x3741 <= 1
   0 <= x3743 <= 1
   0 <= x3745 <= 1
   0 <= x3747 <= 1
   0 <= x3749 <= 1
   0 <= x3751 <= 1
   0 <= x3753 <= 1
   0 <= x3755 <= 1
   0 <= x3757 <= 1
   0 <= x3759 <= 1
   0 <= x3761 <= 1
   0 <= x3763 <= 1
   0 <= x3765 <= 1
   0 <= x3767 <= 1
   0 <= x3769 <= 1
   0 <= x3771 <= 1
   0 <= x3773 <= 1
   0 <= x3775 <= 1
   0 <= x3777 <= 1
   0 <= x3779 <= 1
   0 <= x3781 <= 1
   0 <= x3783 <= 1
   0 <= x3785 <= 1
   0 <= x3787 <= 1
   0 <= x3789 <= 1
   0 <= x3791 <= 1
   0 <= x3793 <= 1
   0 <= x3795 <= 1
   0 <= x3797 <= 1
   0 <= x3799 <= 1
   0 <= x3801 <= 1
   0 <= x3803 <= 1
   0 <= x3805 <= 1
   0 <= x3807 <= 1
   0 <= x3809 <= 1
   0 <= x3811 <= 1
   0 <= x3813 <= 1
   0 <= x3815 <= 1
   0 <= x3817 <= 1
   0 <= x3819 <= 1
binary
  x2
  x3
  x4
  x5
  x6
  x7
  x8
  x9
  x10
  x11
  x12
  x13
  x14
  x15
  x16
  x17
  x18
  x19
  x20
  x21
  x22
  x23
  x24
  x25
  x26
  x27
  x28
  x29
  x30
  x31
  x32
  x33
  x34
  x35
  x36
  x37
  x38
  x39
  x40
  x41
  x42
  x43
  x44
  x45
  x46
  x47
  x48
  x49
  x50
  x51
  x52
  x53
  x54
  x55
  x56
  x57
  x58
  x59
  x60
  x61
  x62
  x63
  x64
  x65
  x66
  x67
  x68
  x69
  x70
  x71
  x72
  x73
  x79
  x80
  x81
  x82
  x83
  x84
  x85
  x86
  x87
  x88
  x89
  x90
  x92
  x93
  x94
  x95
  x96
  x97
  x98
  x99
  x100
  x101
  x102
  x103
  x105
  x106
  x107
  x108
  x109
  x110
  x111
  x112
  x113
  x114
  x115
  x116
  x118
  x119
  x120
  x121
  x122
  x123
  x124
  x125
  x126
  x127
  x128
  x129
  x131
  x132
  x133
  x134
  x135
  x136
  x137
  x138
  x139
  x140
  x141
  x142
  x144
  x145
  x146
  x147
  x148
  x149
  x150
  x151
  x152
  x153
  x154
  x155
  x157
  x158
  x159
  x160
  x161
  x162
  x163
  x164
  x165
  x166
  x167
  x168
  x170
  x171
  x172
  x173
  x174
  x175
  x176
  x177
  x178
  x179
  x180
  x181
  x183
  x184
  x185
  x186
  x187
  x188
  x189
  x190
  x191
  x192
  x193
  x194
  x196
  x197
  x198
  x199
  x200
  x201
  x202
  x203
  x204
  x205
  x206
  x207
  x209
  x210
  x211
  x212
  x213
  x214
  x215
  x216
  x217
  x218
  x219
  x220
  x222
  x223
  x224
  x225
  x226
  x227
  x228
  x229
  x230
  x231
  x232
  x233
  x235
  x236
  x237
  x238
  x239
  x240
  x241
  x242
  x243
  x244
  x245
  x246
  x248
  x249
  x250
  x251
  x252
  x253
  x254
  x255
  x256
  x257
  x258
  x259
  x261
  x262
  x263
  x264
  x265
  x266
  x267
  x268
  x269
  x270
  x271
  x272
  x274
  x275
  x276
  x277
  x278
  x279
  x280
  x281
  x282
  x283
  x284
  x285
  x287
  x288
  x289
  x290
  x291
  x292
  x293
  x294
  x295
  x296
  x297
  x298
  x300
  x301
  x302
  x303
  x304
  x305
  x306
  x307
  x308
  x309
  x310
  x311
  x313
  x314
  x315
  x316
  x317
  x318
  x319
  x320
  x321
  x322
  x323
  x324
  x326
  x327
  x328
  x329
  x330
  x331
  x332
  x333
  x334
  x335
  x336
  x337
  x2799
  x2801
  x2803
  x2805
  x3217
  x3219
  x3221
  x3223
  x3225
  x3227
  x3229
  x3231
  x3233
  x3235
  x3237
  x3239
  x3241
  x3243
  x3245
  x3247
  x3249
  x3251
  x3253
  x3255
  x3257
  x3259
  x3261
  x3263
  x3265
  x3267
  x3269
  x3271
  x3273
  x3275
  x3277
  x3279
  x3281
  x3283
  x3285
  x3287
  x3289
  x3291
  x3293
  x3295
  x3297
  x3299
  x3301
  x3303
  x3305
  x3307
  x3309
  x3311
  x3313
  x3315
  x3317
  x3319
  x3321
  x3323
  x3325
  x3327
  x3329
  x3331
  x3333
  x3335
  x3337
  x3339
  x3341
  x3343
  x3345
  x3347
  x3349
  x3351
  x3353
  x3355
  x3357
  x3359
  x3361
  x3363
  x3365
  x3367
  x3369
  x3371
  x3373
  x3375
  x3457
  x3459
  x3461
  x3463
  x3465
  x3467
  x3469
  x3471
  x3473
  x3475
  x3477
  x3479
  x3481
  x3483
  x3485
  x3487
  x3489
  x3491
  x3493
  x3495
  x3497
  x3499
  x3501
  x3503
  x3505
  x3507
  x3509
  x3511
  x3513
  x3515
  x3517
  x3519
  x3521
  x3523
  x3525
  x3527
  x3529
  x3531
  x3533
  x3535
  x3537
  x3539
  x3541
  x3543
  x3545
  x3547
  x3549
  x3551
  x3553
  x3555
  x3557
  x3559
  x3561
  x3563
  x3565
  x3567
  x3569
  x3571
  x3573
  x3575
  x3577
  x3579
  x3581
  x3583
  x3585
  x3587
  x3589
  x3591
  x3593
  x3595
  x3597
  x3599
  x3601
  x3603
  x3605
  x3607
  x3609
  x3611
  x3613
  x3615
  x3653
  x3655
  x3657
  x3659
  x3661
  x3663
  x3665
  x3667
  x3669
  x3671
  x3673
  x3675
  x3677
  x3679
  x3681
  x3683
  x3685
  x3687
  x3689
  x3691
  x3693
  x3695
  x3697
  x3699
  x3701
  x3703
  x3705
  x3707
  x3709
  x3711
  x3713
  x3715
  x3717
  x3719
  x3721
  x3723
  x3725
  x3727
  x3729
  x3731
  x3733
  x3735
  x3737
  x3739
  x3741
  x3743
  x3745
  x3747
  x3749
  x3751
  x3753
  x3755
  x3757
  x3759
  x3761
  x3763
  x3765
  x3767
  x3769
  x3771
  x3773
  x3775
  x3777
  x3779
  x3781
  x3783
  x3785
  x3787
  x3789
  x3791
  x3793
  x3795
  x3797
  x3799
  x3801
  x3803
  x3805
  x3807
  x3809
  x3811
  x3813
  x3815
  x3817
  x3819
end
